LAMMPS (29 Sep 2021 - Update 2)
OMP_NUM_THREADS environment is not set. Defaulting to 1 thread. (src/comm.cpp:98)
  using 1 OpenMP thread(s) per MPI task
# LAMMPS input script
# author : Simon Gravelle
# lammpstutorials.github.io

# Initialisation
variable T equal 300

units real
atom_style molecular
boundary f f f
pair_style lj/cut 14

bond_style harmonic
angle_style harmonic
dihedral_style opls
improper_style harmonic
special_bonds lj 0.0 0.0 0.5

read_data carbon.data
Reading data file ...
  orthogonal box = (-20.965628 -19.438999 -40.000000) to (59.034372 60.561001 40.000000)
  1 by 1 by 1 MPI processor grid
  reading atoms ...
  680 atoms
  scanning bonds ...
  2 = max bonds/atom
  scanning angles ...
  3 = max angles/atom
  scanning dihedrals ...
  8 = max dihedrals/atom
  scanning impropers ...
  2 = max impropers/atom
  reading bonds ...
  983 bonds
  reading angles ...
  1894 angles
  reading dihedrals ...
  3665 dihedrals
  reading impropers ...
  608 impropers
Finding 1-2 1-3 1-4 neighbors ...
  special bond factors lj:    0        0        0.5     
  special bond factors coul:  0        0        0       
     3 = max # of 1-2 neighbors
     6 = max # of 1-3 neighbors
    18 = max # of 1-4 neighbors
    18 = max # of special neighbors
  special bonds CPU = 0.000 seconds
  read_data CPU = 0.005 seconds
include PARM.lammps
pair_coeff 1 1 0.066047 3.4
bond_coeff 1 469 1.4
angle_coeff 1 63 120
dihedral_coeff 1 0 7.25 0 0
improper_coeff 1 5 180


group gcar type 1
680 atoms in group gcar
variable xcm equal -1*xcm(gcar,x)
variable ycm equal -1*xcm(gcar,y)
variable zcm equal -1*xcm(gcar,z)
displace_atoms gcar move ${xcm} ${ycm} ${zcm}
displace_atoms gcar move -19.0343724705885 ${ycm} ${zcm}
displace_atoms gcar move -19.0343724705885 -20.5609999750002 ${zcm}
displace_atoms gcar move -19.0343724705885 -20.5609999750002 -0
Displacing atoms ...

change_box all x final -35.0 35.0 y final -35.0 35.0 z final -15.0 15.0
Changing box ...
  orthogonal box = (-35.000000 -19.438999 -40.000000) to (35.000000 60.561001 40.000000)
  orthogonal box = (-35.000000 -35.000000 -40.000000) to (35.000000 35.000000 40.000000)
  orthogonal box = (-35.000000 -35.000000 -15.000000) to (35.000000 35.000000 15.000000)

variable xmax equal bound(gcar,xmax)-0.5
variable xmin equal bound(gcar,xmin)+0.5
region rtop block ${xmax} INF INF INF INF INF
region rtop block 19.7623955294115 INF INF INF INF INF
region rbot block INF ${xmin} INF INF INF INF
region rbot block INF -19.7623964705885 INF INF INF INF
region rmid block ${xmin} ${xmax} INF INF INF INF
region rmid block -19.7623964705885 ${xmax} INF INF INF INF
region rmid block -19.7623964705885 19.7623955294115 INF INF INF INF

group gtop region rtop
20 atoms in group gtop
group gbot region rbot
20 atoms in group gbot
group gmid region rmid
640 atoms in group gmid

velocity gmid create ${T} 48455 mom yes rot yes
velocity gmid create 300 48455 mom yes rot yes
fix mynve all nve
compute Tmid gmid temp
fix myber gmid temp/berendsen ${T} ${T} 100
fix myber gmid temp/berendsen 300 ${T} 100
fix myber gmid temp/berendsen 300 300 100
fix_modify myber temp Tmid

fix at1 all ave/time 10 100 1000 c_Tmid file temperature.dat

fix mysf1 gtop setforce 0 NULL 0
fix mysf2 gbot setforce 0 NULL 0
velocity gtop set 0 NULL 0
velocity gbot set 0 NULL 0

variable L equal xcm(gtop,x)-xcm(gbot,x)
#fix at2 all ave/time 10 100 1000 v_L file length.dat
#fix at3 all ave/time 10 100 1000 f_mysf1[1] f_mysf2[1] file force.dat
dump mydmp all atom 1000 dump.lammpstrj

thermo 100
thermo_modify temp Tmid
WARNING: Temperature for thermo pressure is not for group all (src/thermo.cpp:482)

timestep 1.0
run 5000
Neighbor list info ...
  update every 1 steps, delay 10 steps, check yes
  max neighbors/atom: 2000, page size: 100000
  master list distance cutoff = 16
  ghost atom cutoff = 16
  binsize = 8, bins = 9 9 4
  1 neighbor lists, perpetual/occasional/extra = 1 0 0
  (1) pair lj/cut, perpetual
      attributes: half, newton on
      pair build: half/bin/newton
      stencil: half/bin/3d
      bin: standard
Per MPI rank memory allocation (min/avg/max) = 12.20 | 12.20 | 12.20 Mbytes
Step Temp E_pair E_mol TotEng Press 
       0          300    422.56663    149.37308     1143.361   -1967.3468 
     100    213.97005    467.45156    482.56231    1357.5707   -1104.9333 
     200    231.62749    533.63856    519.46498    1494.2931    509.62982 
     300    287.42688     484.9236    543.74763     1576.144   -688.88206 
     400    257.72353    427.74951    706.22049    1624.8657    -2398.911 
     500      299.377    460.96559    631.11462    1662.3148   -1367.6261 
     600    275.99341    531.07127    612.79194    1669.5583     364.6228 
     700    296.42509    497.63146    630.73122    1692.9747   -420.00949 
     800    292.98424    432.16286    700.93969    1691.1607   -2213.4989 
     900    303.93331    453.20481    670.13174    1702.2498   -1649.1291 
    1000    298.96272     518.8165    608.65768    1696.9197    80.617422 
    1100    302.76661    504.26815     623.1666    1704.1257   -236.01208 
    1200     307.3714    442.08123    673.16501    1700.7081   -1919.3541 
    1300    303.70849    446.74925    679.22696    1704.4612   -1748.8147 
    1400    295.52958    513.15607    622.48131    1698.5437   -41.839005 
    1500    310.40389     519.1479    599.63231    1710.0182     170.9859 
    1600    296.37933    444.07708    688.94273    1697.5447   -1802.3463 
    1700    294.58283    433.00087    710.60501    1704.7089   -2169.4866 
    1800    290.99445    503.60412    635.09035    1692.9625   -229.07143 
    1900    303.99376    526.56746    606.73964    1712.3355     301.6414 
    2000      314.645    452.74181     651.4147    1703.4727   -1557.5153 
    2100    292.80514    427.09958    724.56503    1709.3816   -2306.7554 
    2200    318.90809    494.44365    596.70197    1698.5818   -426.27521 
    2300     278.5434    531.96203    646.91913    1709.4333    383.42554 
    2400      306.341    467.62453    651.45926     1702.583   -1159.3962 
    2500    301.02112    427.09164    706.05884    1706.5167    -2400.336 
    2600    302.25494    480.78515    647.18662    1703.6881   -878.62678 
    2700    288.82647    530.28678    627.13908    1707.5645      337.845 
    2800     311.9152    480.69325    624.84909     1699.659    -836.3809 
    2900    284.67955    435.22119     722.4843    1699.9453   -2129.2009 
    3000    309.04914    468.56938    647.34499    1704.5719   -1170.2211 
    3100    288.74113    520.86586    628.71331    1699.5553    147.91872 
    3200    315.27358    490.42571    612.68542    1703.6246   -614.95096 
    3300     287.9033     442.8878    713.12155    1704.3896   -1932.8097 
    3400    318.11853    458.25561    636.29717    1700.4851   -1472.5605 
    3500    296.98886    513.62276    619.37194    1698.6805   -86.588523 
    3600    306.04878    503.06338     622.9479    1708.9539   -322.79611 
    3700     295.4725    443.58884    695.01842    1701.4049   -1859.6796 
    3800    290.09903    450.40525    706.32879    1709.2966    -1719.546 
    3900    300.06981    513.16732    611.95448    1696.6761   -1.2248329 
    4000    290.19841    513.75339    642.19484    1708.7001   -76.607014 
    4100    307.99644    443.96331    675.57049    1706.1862   -1848.3009 
    4200    293.89011    441.58225    706.65191    1708.0177   -1932.7839 
    4300    288.02925    506.74455    645.05083    1700.4155   -241.43272 
    4400    290.71134    518.59334    635.39215    1707.7143    78.674071 
    4500    301.26977    452.41515     676.5997    1702.8547   -1627.3964 
    4600    293.14868    436.78569    712.53556    1707.6926   -2125.0305 
    4700    298.51865    500.21528    634.63903     1703.454   -419.60609 
    4800    291.89835    523.22691    630.04383    1709.2605    221.19231 
    4900    295.41511    463.07132    672.53911    1698.2987   -1363.7399 
    5000    291.93025    437.56101     712.1663    1705.7778   -2080.5186 
Loop time of 3.68321 on 1 procs for 5000 steps with 680 atoms

Performance: 117.289 ns/day, 0.205 hours/ns, 1357.510 timesteps/s
100.0% CPU use with 1 MPI tasks x 1 OpenMP threads

MPI task timing breakdown:
Section |  min time  |  avg time  |  max time  |%varavg| %total
---------------------------------------------------------------
Pair    | 1.4366     | 1.4366     | 1.4366     |   0.0 | 39.00
Bond    | 2.2093     | 2.2093     | 2.2093     |   0.0 | 59.98
Neigh   | 0.0055755  | 0.0055755  | 0.0055755  |   0.0 |  0.15
Comm    | 0.00046624 | 0.00046624 | 0.00046624 |   0.0 |  0.01
Output  | 0.0022707  | 0.0022707  | 0.0022707  |   0.0 |  0.06
Modify  | 0.024623   | 0.024623   | 0.024623   |   0.0 |  0.67
Other   |            | 0.004446   |            |       |  0.12

Nlocal:        680.000 ave         680 max         680 min
Histogram: 1 0 0 0 0 0 0 0 0 0
Nghost:         0.00000 ave           0 max           0 min
Histogram: 1 0 0 0 0 0 0 0 0 0
Neighs:        71037.0 ave       71037 max       71037 min
Histogram: 1 0 0 0 0 0 0 0 0 0

Total # of neighbors = 71037
Ave neighs/atom = 104.46618
Ave special neighs/atom = 16.558824
Neighbor list builds = 7
Dangerous builds = 0

fix at2 all ave/time 10 100 1000 v_L file length.dat
fix at3 all ave/time 10 100 1000 f_mysf1[1] f_mysf2[1] file force.dat

# Incremental elongation
#variable var loop 100
#label loop
#displace_atoms gtop move 0.1 0 0
#displace_atoms gbot move -0.1 0 0
#run 1000
#next var
#jump SELF loop

# Constant-velocity elongation
velocity gtop set 0.00005 NULL 0
velocity gbot set -0.00005 NULL 0
run 200000
Per MPI rank memory allocation (min/avg/max) = 12.20 | 12.20 | 12.20 Mbytes
Step Temp E_pair E_mol TotEng Press 
    5000    291.93025    437.56101     712.1663    1705.7778   -2080.5186 
    5100    319.08883    479.87692    609.25611    1696.9135   -842.10299 
    5200    289.89492    516.60119    642.60414    1711.3791   -20.409902 
    5300    304.76438    475.63314    652.73607    1708.8654   -986.18737 
    5400    292.80032    437.18136    716.66224    1711.5514   -2085.4036 
    5500    302.90724    465.04019    662.74575    1704.7447    -1294.337 
    5600    302.20056    509.20553    627.82688    1712.6452   -214.17837 
    5700    311.61017    482.94787    642.39929    1718.8828   -820.53116 
    5800    300.25408    443.10447    702.24047    1717.2502   -2006.9351 
    5900    322.16497    452.57533    649.67389     1715.889   -1576.2202 
    6000    283.29255    499.52179    677.01795    1716.1377   -538.96076 
    6100    292.26444    488.54903    675.81627    1721.0524   -755.10687 
    6200    302.29282    438.51812    713.39964    1727.7063   -2060.4001 
    6300    291.60487    444.49199    728.18055    1728.1033   -1939.8358 
    6400    302.66868    496.28301    652.75731    1725.5447   -544.75489 
    6500     296.2753    492.26804    677.23392    1733.8287   -720.17519 
    6600    299.30667     437.8964    722.77116    1730.7682   -2169.9949 
    6700    321.53892    439.23944    685.72178    1737.4085    -2051.199 
    6800    307.18387    482.64024    654.74872    1722.4936   -908.07614 
    6900    293.03572    484.72164    695.64847    1738.5263   -934.37352 
    7000    309.61059    447.86817    704.34504    1741.9402   -1848.3986 
    7100    301.50907    434.54007    734.01297    1742.8487   -2238.3364 
    7200    309.79824    461.27372     688.0399     1739.398   -1523.3545 
    7300    276.97177    489.37925    731.49563    1748.4334   -929.80108 
    7400    287.06285    464.65916    739.29111    1750.7297    -1544.973 
    7500    304.88065    434.48693    738.87075    1754.0753   -2342.2867 
    7600    298.95862    440.70524    740.51252    1750.6555   -2157.3583 
    7700    295.14074    478.56197    710.22769    1750.9553   -1136.2829 
    7800    295.13846    477.59987    724.31822    1764.0794   -1184.7049 
    7900    302.47359    432.89498    753.40143    1762.4292   -2372.1188 
    8000    296.07171    423.63168    776.97795    1764.5485   -2663.8472 
    8100    288.43204    471.78289    745.11604    1766.2863   -1387.4249 
    8200    288.81811    488.55884    735.93688    1774.6184   -1045.4532 
    8300    305.08325    435.00728    748.63272    1764.7436   -2363.6201 
    8400    283.82896    419.45324    815.49064    1775.5636   -2800.8091 
    8500    304.81198     462.2507    730.02151    1772.8591   -1644.8619 
    8600    290.80898    486.60157     744.6305    1785.1469   -1179.6118 
    8700    311.83315    435.27538    751.34621    1780.5819   -2332.2524 
    8800    301.64551    418.38752     799.8744    1792.8175    -2860.794 
    8900    301.62706    455.00343    764.28004    1793.8039   -1871.9448 
    9000    304.63399    480.28933    733.22942    1793.7666   -1280.7206 
    9100    298.51059    437.54659    790.08734    1796.2183    -2335.866 
    9200    303.59781    415.64799    802.48925    1796.4114   -2964.4128 
    9300    305.73437    447.66414    771.36101    1801.3689   -2113.3012 
    9400    294.39402    477.44647    767.26931    1805.4591   -1419.0607 
    9500    306.19674    443.33602    777.22715    1803.7876   -2269.8515 
    9600    301.35819    410.18629    827.54618    1811.7408   -3155.4842 
    9700    306.50612    437.39841    794.95927    1816.1714   -2398.7687 
    9800    294.45615    477.21071    781.07517    1819.1476   -1497.0843 
    9900    304.58829    447.95373     795.2671    1823.3816   -2170.7574 
   10000    294.90149    410.61807    853.11093     1825.439   -3210.1027 
   10100    315.51452    426.25852    798.69379    1825.9247   -2753.1986 
   10200    302.91998    467.96309     787.7303    1832.6765   -1729.2193 
   10300    303.42573    457.79687    806.34479    1842.0881   -2035.0882 
   10400      297.603     410.4419    859.90448     1837.202   -3231.1373 
   10500    301.68259    413.47163    852.15664    1840.2545    -3125.963 
   10600    291.29784    458.15025    826.78094    1839.7771    -2075.502 
   10700    290.32114    465.12695    834.96617    1853.0787   -1859.3273 
   10800    310.21706    421.33451    846.28042     1858.497   -3002.4795 
   10900    293.80065    405.53352     897.4778    1862.6245   -3476.2187 
   11000    301.31047    443.14686    845.10731    1862.1715   -2515.3533 
   11100    296.13933     465.2723    844.42199     1873.762   -1927.1997 
   11200    300.18391    425.71401    878.29214    1875.7777   -2960.6732 
   11300    291.10581    403.16874    921.46153    1879.1105   -3615.7808 
   11400    304.54637    431.80697    861.34275    1873.2307   -2804.1462 
   11500    291.46532    464.12307    872.06118    1891.3492   -2084.1726 
   11600     301.6388    433.23185    883.31521    1891.0898   -2826.2209 
   11700    298.42695    400.33819    922.24637    1891.0096   -3748.7512 
   11800    312.89305     422.5669    879.19502    1897.7411   -3076.3774 
   11900    288.73895     460.4495    896.63005    1907.0515   -2220.3811 
   12000    302.21572    436.45779    894.37448    1906.4739   -2738.0645 
   12100    308.00821    395.61442    925.80931    1908.0985   -3815.6099 
   12200    302.21935    414.67185    922.69917    1913.0196   -3324.4982 
   12300    292.23561    462.76183    899.56144    1918.9554   -2227.5463 
   12400    298.10869    440.73729    914.38394    1922.9401   -2754.4367 
   12500    295.72525    390.89298    981.29332    1935.4653    -4090.549 
   12600    308.24581    405.97017    943.33697    1936.4345   -3649.5678 
   12700    298.96962    457.16625    909.06461    1935.6895   -2372.3309 
   12800    301.27968    444.50253    926.18777     1944.549   -2673.5791 
   12900     304.0334    392.80808    982.58888    1954.5008   -4021.4934 
   13000    305.94298    402.82102    966.99486     1952.557   -3764.2449 
   13100    305.36125    450.83494     927.5766    1960.0446   -2599.9336 
   13200    297.71101    445.55574    954.55436    1967.1715   -2792.8261 
   13300     299.6642    399.20823     996.3075    1966.2974   -3984.5918 
   13400    309.61795    397.94196    987.35549    1975.0384   -3979.1372 
   13500    292.57777    429.62149    988.58754    1975.4929   -3185.1247 
   13600    282.16497    451.47058    1005.6846    1994.6054   -2762.6268 
   13700    308.29526    414.90642    987.77741    1989.9054     -3589.99 
   13800    299.42373    387.50024    1033.4859    1991.3097    -4317.658 
   13900    308.33478    420.08305    996.31571    2003.6956   -3511.2169 
   14000    297.98892    451.04906    994.56403    2013.2038   -2731.4238 
   14100    300.99944    418.78919    1024.6997    2016.8139   -3488.5455 
   14200    297.68339    378.46832    1074.2034    2019.6805   -4609.9552 
   14300    298.59803    410.79226    1051.0261    2030.5693   -3798.4313 
   14400    299.83914    452.39936     1005.095    2028.6092   -2754.9497 
   14500    294.42014    420.71649    1048.1257    2029.6353   -3612.5772 
   14600    288.42794    379.27767    1114.5294    2043.1866   -4694.6474 
   14700    303.74764    406.78138    1054.6589    2039.9999    -3976.342 
   14800    288.52132    446.96842    1049.1156    2045.6414   -3056.8913 
   14900    295.08337    422.15627    1072.1431    2056.3557   -3710.1903 
   15000    293.88289    382.90356    1119.6125    2062.2859   -4678.0682 
   15100    284.84378    401.94039     1113.498    2057.9911    -4187.771 
   15200    294.25755    438.90868    1080.1533    2079.5454   -3252.1375 
   15300    294.84888    424.31493    1099.7602    2085.6848   -3632.8306 
   15400    297.16978    385.40779    1129.8821    2081.3203   -4599.5867 
   15500    304.65915    390.02261    1116.1843    2086.5027   -4502.7533 
   15600     301.0035     428.5225    1096.6205    2098.4757   -3630.5192 
   15700    293.07636    430.87645    1120.0587    2109.1688   -3598.2185 
   15800    293.41781    393.20437     1149.522    2101.6103   -4581.1054 
   15900    293.51768    384.82475    1173.1011         2117   -4839.8693 
   16000    302.19848    424.66277    1122.8864     2123.158    -3721.392 
   16100    297.86045    435.72115    1129.9333    2133.0005   -3508.9195 
   16200    299.89478     391.6822    1168.7081    2131.6111   -4606.4576 
   16300    302.47153     375.1029    1198.8036    2150.0354   -5080.2249 
   16400    305.44456    416.80127    1143.5367    2142.1297   -4008.8396 
   16500    301.79245    434.55191    1143.3249    2152.7122   -3643.3573 
   16600    296.28429    396.10955    1199.9459    2160.3993   -4645.8614 
   16700    301.23236    382.08507    1211.3002    2167.1539   -5034.7225 
   16800    304.79489    410.02997    1178.8459    2169.4301   -4250.3448 
   16900    310.70578    431.57858    1156.0808    2179.4723   -3791.2846 
   17000    294.82809    400.16499    1233.2476    2194.9827   -4555.2202 
   17100    310.98356    375.99565    1230.4553    2198.7931   -5174.3942 
   17200    307.20835    397.08492    1218.1652    2200.4014   -4662.1453 
   17300    306.43995    426.64085    1196.0654     2206.394    -3934.732 
   17400    300.06527    408.66368    1245.0173    2225.2265   -4396.6992 
   17500    303.92388     378.9795    1260.3918    2218.2666   -5199.6711 
   17600    302.41884    389.70624    1262.5664    2228.3012   -4934.7012 
   17700    296.47574     424.6877    1242.2537    2231.6499   -4085.6661 
   17800    302.41075    413.07418    1251.2909    2240.3782   -4426.1425 
   17900    297.35396    373.71884    1309.1623    2249.2624   -5405.5547 
   18000    303.97865    385.88963    1295.2316    2260.1208   -5144.5308 
   18100     306.2186    425.46571    1257.0663    2265.7981   -4153.6617 
   18200    300.86352    412.56042    1282.0815     2267.708   -4577.0759 
   18300    291.79566    379.70901    1347.1126    2282.6158   -5346.6297 
   18400    297.61311    385.21026    1332.7779    2284.8631   -5231.9809 
   18500    297.25251    412.54965    1306.4346    2285.1723   -4552.6281 
   18600    295.84209    408.08981    1331.2335    2302.8248    -4682.908 
   18700     303.0266    382.65362    1350.5701    2310.4098   -5318.3989 
   18800    311.29886    378.40803    1345.0933     2316.444   -5460.4121 
   18900    312.38443     407.1631    1320.0512    2322.2247   -4812.4462 
   19000    297.48703    413.77484    1348.2254     2328.635   -4670.5333 
   19100     288.0565     388.7097    1401.2897    2338.6715   -5344.0398 
   19200    309.25707    376.75765    1380.2073    2346.0186   -5567.5251 
   19300    313.02617    396.28132    1360.2217    2352.7357   -5035.0875 
   19400    291.08448    409.45004     1402.285    2366.1747   -4788.1987 
   19500    299.22844    390.48124    1406.0818    2366.5147   -5281.3378 
   19600    294.99854    373.30367    1436.3085     2371.507   -5761.5217 
   19700    295.46888     393.7556    1426.4207     2382.967   -5285.1552 
   19800    299.37687    415.92018    1414.1409    2400.2954   -4799.5058 
   19900    297.68155    391.99346    1444.0548    2403.0535   -5405.3939 
   20000    297.50266    372.75597    1474.5657    2413.9862   -5941.9409 
   20100    303.02636    387.52287     1447.552    2412.2605   -5544.8507 
   20200    299.21886    409.40697    1442.2704    2421.6107   -5051.5532 
   20300    300.82552    392.91921    1474.1607    2440.0736   -5447.3869 
   20400    286.80131    377.78703    1520.8237     2444.892   -5850.4936 
   20500    297.53204     381.8404    1492.8618    2441.4226    -5712.658 
   20600    284.64408    402.89996    1514.9001    2459.9723   -5282.0824 
   20700    306.84649    401.21747    1493.4666    2479.1462   -5270.8391 
   20800    300.14115    373.20621    1531.1226     2476.019   -5988.1363 
   20900     305.7226    376.57853    1514.7537    2473.6536    -5959.108 
   21000    290.14062    402.48467    1532.6034    2487.7298    -5404.183 
   21100    288.37625    406.70053    1543.5413     2499.523   -5427.5338 
   21200    304.05309    375.20971    1555.5665    2509.9175   -6100.5296 
   21300    275.11918    374.29649    1620.3273    2518.6536   -6132.2246 
   21400    302.04306    392.78513    1553.3175    2521.4154   -5644.8399 
   21500    298.99403    401.11335    1571.9484     2542.567   -5523.3777 
   21600    305.39387    377.49438    1586.2522    2545.4418   -5988.5571 
   21700     306.5927    366.60446    1603.1185    2553.7016   -6317.3195 
   21800    307.38469    387.82947    1586.8518    2560.1685   -5820.1153 
   21900    294.81648    408.32287    1606.8612    2576.7321   -5461.6173 
   22000    297.63096    384.20386     1625.983    2577.0957   -6011.3599 
   22100    296.10092    362.16034    1658.1426    2584.2975    -6656.559 
   22200    300.67387    379.97432    1643.6081    2596.2872   -6215.7399 
   22300    288.73376    408.78607    1652.1005    2610.8487   -5567.5721 
   22400    292.44868     390.3429    1676.8123    2624.1932   -6098.1199 
   22500    308.91493    361.14593    1679.4924    2629.0402   -6695.0558 
   22600    308.25533    376.96686    1675.6144    2639.7268   -6270.4148 
   22700    296.14913    410.03483    1666.5719    2640.6931   -5545.7079 
   22800    306.70875    389.14156    1673.3687      2646.71   -6087.6695 
   22900    294.43859    358.14809    1743.1964    2662.1728   -6928.1902 
   23000    298.95946    373.49733    1726.3664     2669.303   -6568.6711 
   23100    294.31594    411.10226    1711.5737    2683.2706   -5811.1918 
   23200    302.64578    396.48456    1722.4645    2695.4099   -6063.8732 
   23300    306.22075    359.88356    1761.6869    2704.8406    -6924.365 
   23400    304.87832    371.30133    1764.5359    2716.5505   -6684.4106 
   23500    296.30083     400.6333    1752.2421    2717.2507   -5938.6887 
   23600    303.97001    391.94404    1762.9015    2733.8286   -6196.8724 
   23700    302.72309    356.83509    1804.2952    2737.7384   -7046.1948 
   23800    304.45622    369.86485    1800.7877    2750.5618   -6778.7696 
   23900    304.08957    401.05392      1784.19    2764.4547   -6093.3696 
   24000    302.02376    395.35358     1794.756    2765.3856   -6300.5232 
   24100    300.62729    368.42937    1842.0617    2783.1072    -7001.504 
   24200    317.41048    369.15738     1813.948    2787.6891   -6903.4471 
   24300    298.63774    388.74184    1836.6027    2794.1711   -6530.8977 
   24400    294.99709    391.03886    1860.8293    2813.7602   -6494.2653 
   24500    318.89266    372.07553    1837.8974    2817.3798   -6834.9203 
   24600    296.98722    364.17865    1890.1153    2819.9767   -7159.7788 
   24700    300.75215    382.64728    1884.5541    2840.0553   -6717.6971 
   24800    298.67231    397.04735    1887.2516    2853.1913   -6414.5308 
   24900    291.48175    375.19337    1928.8899    2859.2795   -6954.7414 
   25000    301.75439     354.9445    1940.5937    2870.3011   -7497.3403 
   25100    301.01543    377.16438    1922.0935    2872.6133   -6923.7012 
   25200    296.42204    400.72059    1923.9402     2889.267   -6418.0875 
   25300    303.35236    376.91147    1945.5494    2900.2675   -7062.3584 
   25400    293.54535    359.93696    1991.6776    2910.7414    -7557.105 
   25500    301.85438     380.6756    1963.6108    2919.2398   -7030.1044 
   25600    307.05482    398.75231    1948.4161    2932.0272   -6618.3397 
   25700    294.24394    381.45336    2004.9641     2946.875   -7102.2295 
   25800    298.52982    357.07674    2028.8788    2954.5765   -7642.3688 
   25900    309.44076    365.46015     2005.331    2960.1946   -7440.6927 
   26000    304.65528    397.68117    1996.8846    2974.8541   -6713.8861 
   26100    304.29337    388.98757     2016.442    2985.0287   -6942.8005 
   26200    303.81284    353.60513    2060.8563    2993.1452   -7834.6871 
   26300    309.56734    361.41857     2060.146    3011.2091   -7639.4859 
   26400    302.54919    401.72189    2037.3341    3015.3328   -6791.8225 
   26500    303.12215    387.43315    2058.5345    3023.3358   -7136.7386 
   26600    299.38821    349.60746    2124.3584    3044.2218   -8059.7292 
   26700     304.1147    363.42227    2107.9366    3050.6175   -7707.2963 
   26800    301.60547     395.7034    2081.3471    3051.5298   -6973.4839 
   26900    297.27087    384.37716    2122.1449     3072.745   -7280.3176 
   27000    289.47555    356.79943    2174.2771    3082.4515   -7937.6262 
   27100    297.93196    360.52844    2167.6663     3095.677   -7917.1583 
   27200    303.17042    383.48873    2139.2731    3100.2219   -7382.9794 
   27300    294.45323    391.04948    2167.9228    3119.8284   -7307.3634 
   27400    302.84759    366.16362    2186.5716    3129.5804   -7837.6821 
   27500    289.28109    353.94199    2234.6098    3139.5563   -8191.9182 
   27600    305.17599    379.53688    2190.3511    3151.1681   -7619.7697 
   27700    302.36643     393.3873    2195.1124    3164.4284   -7302.4736 
   27800    300.05956    367.09625    2232.3994    3171.0304   -8003.3394 
   27900    292.33612    353.52839    2280.9775    3191.3295   -8297.6938 
   28000    296.58246    380.08347    2252.2583    3197.2536   -7699.4506 
   28100    305.86464    390.42089     2234.243    3207.2558   -7451.1967 
   28200    292.89663    370.35389    2287.1876    3215.4328   -7967.3781 
   28300    300.32169    354.19131     2307.732    3233.9573   -8367.7513 
   28400    283.63406    370.00711    2332.4207    3242.6763   -8083.5128 
   28500    297.58547    390.91809    2300.8382    3258.5785   -7633.9738 
   28600    314.80674     375.8436    2287.1924    3262.6603    -7945.351 
   28700    294.46008    352.23518    2371.0007     3284.105   -8554.4249 
   28800     304.0768    371.97623    2344.3054    3295.4682   -8120.9861 
   28900     296.3907    396.22175    2343.9304    3304.6987   -7616.9913 
   29000    306.92046    372.67999    2358.7407    3316.0236   -8140.9226 
   29100    307.12703    347.08875    2399.5229    3331.6081    -8705.667 
   29200    304.89943    366.46147    2390.3894    3337.6043   -8304.5753 
   29300    309.94728    391.20734    2372.2737    3353.8493   -7801.2181 
   29400    298.53418    378.38867    2422.7431    3369.7611    -8183.149 
   29500    302.97074    354.33774    2447.4872    3378.9047   -8767.0461 
   29600    301.67229    368.94165    2444.0775    3387.6257   -8455.0204 
   29700     301.4529    390.14094    2442.8944     3407.224   -8043.4385 
   29800    300.91533    377.76776    2461.5436    3412.4762   -8303.4015 
   29900    300.79996    352.15505    2499.2959    3424.3959   -8906.0693 
   30000    292.25674    362.60282    2521.6495    3440.9247   -8772.2504 
   30100    300.26424    391.86829     2491.124    3454.9169   -8099.7558 
   30200    296.78084     381.4423    2530.5848    3477.3167   -8294.8683 
   30300    299.03464    356.71774    2552.2557     3478.556   -8904.0971 
   30400    299.25776    352.46293    2567.7498    3490.2202   -9036.4699 
   30500    300.98652     386.4061    2544.3446    3504.0511   -8285.8084 
   30600    306.64005    386.68196    2538.6537    3509.4045   -8275.9688 
   30700    291.48747    350.27435    2620.2634    3525.7449   -9229.0286 
   30800    301.16742    357.83258    2615.3574    3546.8349   -9051.4614 
   30900    294.37648      391.241    2601.4306    3553.3816   -8308.0965 
   31000    297.92699    381.90751    2624.8715    3574.2517    -8562.308 
   31100     298.2616    353.19315    2664.3094    3585.6126   -9246.7223 
   31200    296.83711     356.0768    2669.4826    3590.9562   -9149.3018 
   31300    295.33251    376.47761    2664.8483    3603.8568   -8714.7466 
   31400    295.89719    384.42527     2671.679    3619.7108    -8588.926 
   31500    304.03593    367.26277    2695.6114    3641.9829   -8969.8131 
   31600    299.03693    349.70958     2724.371    3643.6674   -9413.0889 
   31700    295.85187    373.96377    2729.6099    3667.0938   -9016.5395 
   31800    300.10095    392.55499    2709.7963    3673.9648   -8585.2907 
   31900      291.032    364.72668    2766.0189    3685.0851   -9267.0109 
   32000    305.91939    350.70703    2764.0457    3697.4489   -9634.2389 
   32100    300.80611    373.73471    2760.7259    3707.4173   -9105.9459 
   32200    302.63748    392.44333    2761.6656     3730.554   -8750.3994 
   32300    302.61997    370.54492    2795.5969    3742.5534   -9220.3793 
   32400    301.52744    351.00945    2831.0897    3756.4298   -9665.0332 
   32500    289.03758    364.44063    2857.5729    3772.5542   -9384.2974 
   32600    307.56884    387.37147    2811.4504    3784.6598   -8865.7951 
   32700     307.0264    371.77505    2832.1137    3788.6934   -9277.2541 
   32800     306.2054    347.57092    2871.3571     3802.169   -9873.3645 
   32900    303.70274    366.46173    2876.0946    3821.0304   -9564.6444 
   33000     303.4209    389.28466    2870.0042    3837.2261     -9074.07 
   33100    307.93449    373.54893    2895.7924    3855.8757   -9433.5421 
   33200    295.65363    348.82262     2957.577    3869.5422   -10042.391 
   33300    304.25405    365.45427     2929.845    3874.8234   -9614.1269 
   33400    305.27567    386.13781    2927.6561     3895.264   -9114.3176 
   33500    289.33151    372.91925    2981.5375    3905.5574   -9518.5059 
   33600    305.55214     348.0216    2986.4488     3916.467   -10023.223 
   33700     300.1404    363.79854      2998.14    3933.6273   -9732.5861 
   33800    313.38684    386.38313    2968.0662     3951.369   -9356.6696 
   33900    303.10306    373.84682    3019.8213    3970.9999   -9682.8691 
   34000    302.40447    351.16462    3056.8102    3983.9759   -10193.653 
   34100    298.79879    362.36828    3062.7059    3994.2075   -9969.3903 
   34200    302.70259    389.05968     3038.316    4003.9446   -9476.9956 
   34300    300.62488    372.87594    3070.6006     4016.088   -9770.6681 
   34400    284.31119    349.30919    3146.0966     4036.944   -10363.593 
   34500    301.77251    360.57105    3124.9243    4060.2928   -10114.897 
   34600    295.94331    386.45037     3118.505    4068.6498   -9512.3924 
   34700     298.1661    377.14784    3140.9061    4085.9821   -9821.8967 
   34800    293.68209    350.95749    3181.8545    4092.1993   -10489.651 
   34900    302.59792    361.96713    3168.4503    4106.7871   -10240.385 
   35000    294.83586    383.25302    3172.3836    4117.2216   -9839.3688 
   35100    291.54096    377.26074    3205.9391    4138.5089   -10092.463 
   35200    312.85493    357.38914    3202.8526    4156.1483   -10466.166 
   35300    299.55631    357.15767    3239.2174    4166.9513    -10442.38 
   35400    298.12352    380.90304    3235.9373    4184.6874   -10003.234 
   35500    308.68633    382.85593    3231.2713    4202.0937   -9960.0755 
   35600    301.49312    355.74642    3277.9927    4208.0044   -10549.486 
   35700    310.31451    349.00503    3284.9703    4225.0431   -10724.284 
   35800    314.01424    382.21095     3262.074    4242.3997   -10027.301 
   35900    294.90687    387.76412    3305.4057      4254.89   -9996.4866 
   36000    293.14518    356.66055    3358.6833    4273.7085    -10772.93 
   36100    297.94888    355.52997    3372.9426     4295.987   -10800.266 
   36200    295.38839    380.34099    3360.8441    4303.8225   -10300.733 
   36300    303.65039    382.37036     3360.455    4321.1997   -10292.981 
   36400    301.22723    361.48416    3396.3044    4331.5474   -10757.811 
   36500    299.67416    355.68482    3422.1109    4348.5964   -10879.633 
   36600    308.98294    377.04524    3404.0065    4369.5832   -10469.568 
   36700    292.81452    387.50802    3436.7502     4381.993   -10275.169 
   36800    299.04606     362.9587    3461.8063    4394.3692   -10787.454 
   36900    290.75154     349.1556     3507.637     4410.598   -11172.166 
   37000    306.64316    374.67279       3469.2    4427.9476    -10630.93 
   37100    309.28052    393.01238    3463.2624     4445.373   -10287.923 
   37200    292.55895    364.66049     3536.703    4458.6115   -10966.695 
   37300    313.19896     350.5836    3525.2938    4472.4393   -11305.243 
   37400    305.49187    375.89131    3534.9764    4492.7496   -10746.277 
   37500    295.41581    388.79111    3555.1994    4506.6801   -10560.931 
   37600    298.82726     361.2531    3593.8845    4524.3252   -11160.914 
   37700    312.79496     355.6508    3586.1848     4537.628   -11256.096 
   37800    307.30783    378.80977    3587.4503    4551.6008   -10797.047 
   37900    314.58809    384.33142    3586.4777    4570.0169   -10725.272 
   38000    303.07135    366.30951    3643.3545    4586.9354   -11164.593 
   38100    304.92848    351.36064    3665.6151    4597.7844   -11421.849 
   38200     307.0524     369.3459    3665.5161    4619.7163   -11206.194 
   38300    295.33311    389.43017     3684.462    4636.4243   -10849.427 
   38400    295.57055    374.04765    3716.6885    4653.7205   -11189.943 
   38500    293.31085    350.01802    3762.2798    4670.9781   -11725.048 
   38600    311.08074    374.97225    3719.9035    4687.4029   -11217.386 
   38700    300.46793    389.21844    3740.6322    4702.1632   -10939.322 
   38800     296.1554    366.25097    3782.5703    4712.9196   -11442.157 
   38900    297.84522    353.73716    3805.8447    4726.8988    -11727.95 
   39000    300.36641    374.79443    3797.2574    4744.1711   -11302.855 
   39100    302.32652    383.06309    3806.6785    4765.5943   -11152.337 
   39200     300.9679    370.48149    3842.6348    4786.3812   -11509.483 
   39300    305.84154    358.22478    3857.4464     4798.219   -11789.837 
   39400    304.19203    367.51052    3868.3197    4815.2362   -11635.863 
   39500    294.61888    384.66521    3890.2998    4836.1367   -11326.564 
   39600    305.66681    378.58284    3894.8676    4855.6655   -11464.583 
   39700     295.9977     357.3261    3941.0113    4862.1353   -11999.191 
   39800    310.16955    363.45998    3927.6287    4881.8802   -11819.691 
   39900    305.21778    385.21809    3937.3847    4903.9626    -11387.05 
   40000    300.34733    378.76051    3967.0124    4917.8558   -11624.758 
   40100    294.29948    356.16549    4017.8056    4934.5344    -12112.76 
   40200    312.55294    370.65667    3987.9332    4953.9212   -11828.827 
   40300    306.19704     382.7245    3994.9962    4960.9458   -11580.197 
   40400    293.49271    372.07751    4057.4535    4988.5577   -11934.936 
   40500    300.14973     367.9335    4070.9959    5010.6359    -12070.39 
   40600    288.57173    368.38714    4101.4481    5019.4887   -12135.578 
   40700    294.08028    379.26827    4101.8987    5041.3128   -11874.343 
   40800    315.05518    385.74835    4072.9604    5058.8062   -11793.649 
   40900    297.05564    367.19906    4139.1075    5072.1196     -12190.9 
   41000    299.55335    359.21996    4158.6694    5088.4599   -12339.898 
   41100     300.3041    379.18817    4161.0997    5112.2884   -11958.671 
   41200    299.86949    382.11602     4174.771    5128.0597    -11909.35 
   41300    301.61202    365.40991    4208.6803     5148.582   -12359.361 
   41400    297.38006    364.66718     4229.115    5160.2132   -12417.017 
   41500    312.62732    385.43352    4194.6393    5175.5458    -12049.01 
   41600    289.30836    378.41178    4267.5742    5197.0425   -12251.063 
   41700    297.88988    366.29774    4281.5588    5215.2586   -12485.659 
   41800    302.28138    369.46335    4290.1218    5235.3519   -12468.587 
   41900    303.65319    384.34117    4283.5792       5246.3   -12260.297 
   42000    308.25648    383.14339     4298.967    5269.2582   -12232.813 
   42100    297.84258    367.83355    4350.3913    5285.5368   -12595.757 
   42200    289.94904    363.12284      4387.26    5302.6597   -12778.599 
   42300    296.61884    379.56143    4377.2123    5321.7548   -12421.835 
   42400    300.92033    387.27129    4381.1883    5341.6339   -12319.887 
   42500    312.71155    366.70333    4395.7586    5358.0954   -12755.053 
   42600    293.41983     361.4636    4457.7632    5378.1146   -12896.672 
   42700    296.52151    385.02777    4442.5207    5392.3441   -12483.924 
   42800    301.47202     380.2909     4454.776     5409.292     -12648.6 
   42900    307.12442    368.28868     4474.121    5427.4011    -12927.17 
   43000     306.7567    371.63208    4493.7625    5449.6856   -12846.687 
   43100    297.56716    384.38098    4519.8468    5471.0151   -12713.023 
   43200    300.53416    383.99074    4537.7054    5494.1349   -12677.561 
   43300    298.45575    373.18584    4568.6816    5510.3474   -12965.607 
   43400     296.9353    364.01995    4592.0647    5521.6685   -13159.219 
   43500    298.77904    379.30288    4598.9859    5547.3844   -12892.504 
   43600    298.78878    387.55531    4600.2581    5556.9276     -12749.2 
   43700    298.54925    375.15551    4633.9754    5577.7889   -13107.848 
   43800    304.77097     368.8788    4644.4605    5593.8481   -13220.764 
   43900    298.90806    384.37441    4662.0016    5615.7174   -13009.705 
   44000    297.91187    382.95103    4689.7931    5640.1881   -13009.509 
   44100     293.2876    375.84005     4725.916     5660.392   -13267.053 
   44200    314.11233    373.38999    4694.9279    5666.6194   -13238.284 
   44300    295.49012    381.85334    4746.9257    5691.6102   -13231.403 
   44400    300.32968    386.87526    4756.3231    5715.2476   -13112.124 
   44500    307.71433     383.0279    4764.7038    5733.8467   -13162.163 
   44600    304.24839    371.37627    4795.6055    5746.4951   -13483.303 
   44700    295.37161    374.56308    4831.2549    5768.4234   -13448.439 
   44800    303.99515    386.79854    4812.1385     5777.968   -13200.997 
   44900    310.21289    382.87836    4827.1762    5800.9288   -13292.543 
   45000    301.98584    373.04459    4878.1361    5826.3845   -13581.884 
   45100    301.56548    376.29023    4894.5752    5845.2685   -13508.021 
   45200    300.76951    387.00582    4909.8124    5869.7052    -13421.77 
   45300    288.33864     379.0874    4954.5704    5882.8672   -13661.161 
   45400    291.06889    380.08625    4964.7485    5899.2446    -13627.83 
   45500    306.43821    374.67996    4960.2494    5918.6137   -13709.502 
   45600    301.30088    380.39807    4992.2944    5946.5916   -13636.223 
   45700    308.34393    388.90719     4983.853    5960.0745   -13465.638 
   45800     312.8057    375.14288     5011.686    5982.6417   -13825.186 
   45900    310.13962    373.35671    5041.1702    6005.2615   -13891.166 
   46000    299.03961     386.8499    5064.7911     6021.233   -13707.707 
   46100    297.87121    392.81862    5075.3744    6035.5595   -13664.736 
   46200    289.92519     383.5043     5122.098    6057.8337   -13941.625 
   46300     291.1672     377.2571    5155.4574    6087.3117    -14097.75 
   46400    294.08063    391.25265    5150.9958    6102.3949    -13818.56 
   46500    291.28338    394.41666    5175.0392    6124.2743   -13816.032 
   46600     288.6471    379.60403    5208.8238    6138.2248   -14115.905 
   46700    305.96971    373.02629    5207.3784    6163.1967   -14229.847 
   46800    307.14082    387.61517    5210.3605    6182.9984   -14001.325 
   46900    299.69345    395.89379    5239.5074    6206.2385   -13834.147 
   47000    308.81744    376.50834    5259.2993    6224.0238    -14168.68 
   47100    298.87508    368.82743    5309.2876    6247.3937   -14526.056 
   47200     302.2565     395.3969    5292.5359    6263.6522   -14041.712 
   47300    303.16424    400.33719    5305.5639    6283.3495   -13945.018 
   47400    290.15908    378.53486    5370.0125    6301.2243   -14467.321 
   47500    293.09193    374.53076    5393.8615    6326.6555   -14579.412 
   47600     305.1751    388.65048    5371.2248    6341.1537   -14244.006 
   47700    287.94978    399.62077    5418.3632    6366.4527   -14177.802 
   47800    303.33964    381.83908    5422.5178    6382.1393   -14464.757 
   47900     297.8547    374.79444     5465.593    6407.7225   -14679.406 
   48000    304.13232    388.36337    5457.4858    6425.1414   -14426.372 
   48100     292.6212    399.60555     5493.636    6450.6082    -14265.24 
   48200    291.62177    385.09981    5527.5948    6468.1575   -14616.833 
   48300    300.89617    373.81932    5544.0905    6491.0381   -14863.104 
   48400    300.68218    398.94889    5539.6177    6511.2873   -14544.046 
   48500    296.45306    405.40228    5563.8105     6533.878   -14368.166 
   48600    303.10917    379.23339    5595.7834    6552.3602   -14905.005 
   48700    297.46748    373.92819    5628.6303     6569.156   -15037.953 
   48800    311.69633     399.7871    5605.2954    6598.7822   -14592.909 
   48900    293.35381    402.35636    5654.9643    6616.0827   -14515.671 
   49000    292.81615    383.08111    5703.2766    6644.0957   -15000.592 
   49100    311.74716    375.26956      5685.31    6654.3761   -15067.075 
   49200    304.28068    397.84704    5700.0275    6677.4494   -14721.313 
   49300    300.89738     403.2793     5717.908    6694.3178   -14725.429 
   49400    300.25492    384.94369    5762.9894    6719.8399   -15046.381 
   49500    301.28469    376.30806    5787.4826     6737.659   -15274.037 
   49600    293.07728    400.52298    5806.0305    6764.7888    -14894.45 
   49700    295.55455    404.99482    5812.7262    6780.6749   -14794.101 
   49800    299.45906    379.94149    5857.9719    6808.3043   -15379.686 
   49900    297.82417    380.49476    5874.8618    6822.6334   -15408.135 
   50000    296.64814    407.58345    5877.7617     6850.382   -14928.189 
   50100    301.45392    402.40343    5896.8349     6873.429   -14977.791 
   50200    295.16541    381.85526    5951.5164    6895.5844   -15499.022 
   50300    307.75817    380.27471    5943.7721    6910.2454   -15463.794 
   50400    303.65379    402.77489    5951.8199    6932.9756   -15143.948 
   50500    293.11745    403.79686    5991.1436    6953.2523   -15206.613 
   50600    297.64522    392.05852    6016.7937    6975.7883   -15456.363 
   50700    304.95557    379.92991    6040.3742    7001.1645   -15688.389 
   50800    297.14223    402.01419    6058.7931    7026.7852   -15363.941 
   50900    307.53914    409.10486    6043.8493    7038.7355   -15182.292 
   51000     292.8279      384.391    6120.6321    7062.7834   -15752.811 
   51100    307.65235    386.55347    6118.9635     7091.514   -15729.131 
   51200    298.64954    413.17536    6126.3179    7108.3423   -15262.256 
   51300     300.8823    397.41329    6159.6767    7130.1918   -15564.856 
   51400    307.43681    382.64645    6188.0287    7156.2616   -15855.077 
   51500    302.67562    397.85051     6205.716    7180.0841   -15697.444 
   51600    287.88854    404.64726    6242.7546     7195.754   -15628.857 
   51700    293.05684    400.94171    6262.8307    7221.9688   -15724.173 
   51800    296.37999    391.88557     6289.756    7246.1677   -15915.809 
   51900    300.00499    387.87179    6309.4159    7268.7185   -16028.154 
   52000    295.44705    405.34103    6323.6532    7291.7433   -15763.988 
   52100    307.35097    408.66638    6320.0769    7314.1663   -15686.093 
   52200    295.83333    393.56497    6368.5586    7325.6084   -16095.569 
   52300     290.3382     387.4047    6415.3484    7355.7712   -16179.831 
   52400    304.26359    412.71006    6382.4078    7374.6602   -15820.632 
   52500    298.52609    405.05255    6423.0947    7396.7612   -15906.109 
   52600    305.45465    389.09824     6455.781    7426.6902   -16226.765 
   52700    309.25236    397.97477    6458.1881    7445.2075   -16167.838 
   52800    299.43824    407.78794     6489.962    7468.1012   -16056.381 
   52900    286.54853    406.15889    6540.4615    7492.4201   -16229.651 
   53000     304.2568    406.89379    6525.4652    7511.8884   -16204.075 
   53100    296.63956    399.58602    6574.3738    7538.9804   -16391.913 
   53200    296.38859    406.00085    6594.9328    7565.4762   -16280.668 
   53300    295.17436    414.40317    6606.1833    7582.8162   -16137.313 
   53400    298.00415    403.20824    6635.1019    7605.9298   -16430.195 
   53500    307.13573    396.68398       6650.7    7632.3969   -16548.495 
   53600    298.25356    410.05539    6678.6148    7656.7649   -16355.134 
   53700    293.60199    411.91979    6701.0904    7672.2449   -16332.493 
   53800    288.17427    400.51948    6752.9471    7702.3629   -16597.161 
   53900    309.85535    403.96893     6729.073    7723.2351   -16502.454 
   54000    308.59185    409.35784    6740.6494    7737.7937   -16547.976 
   54100    302.64718    406.20552    6785.5401    7768.2091   -16600.668 
   54200    297.54645     414.0923    6814.2803    7795.1205   -16575.631 
   54300    295.56118    406.34499    6846.6786    7815.9901   -16737.928 
   54400    302.58851    405.89502     6857.553    7839.7997   -16780.793 
   54500      307.771    416.74172    6855.0817    7858.0464   -16564.451 
   54600    294.72313    407.99136    6918.8512    7888.2128   -16844.767 
   54700    303.17421    400.06997    6930.5578    7908.0951   -16935.728 
   54800    302.75788    410.67148    6946.4183    7933.7641   -16772.717 
   54900    293.43575    416.37548    6981.0391    7956.3327   -16782.683 
   55000      308.565    407.54266    6979.7824    7975.0604   -16881.128 
   55100    305.54461    405.45827     7020.941    8008.3816   -17013.218 
   55200    304.79753    409.51179     7036.989    8027.0601    -17109.13 
   55300    310.39654    422.02749    7045.2601    8058.5115   -16917.718 
   55400    306.95171    426.96202    7071.4862    8083.1107    -16832.84 
   55500    302.97558    401.69431    7122.0395    8100.8228   -17324.064 
   55600    303.26538    402.26683    7146.2588    8126.1666   -17334.995 
   55700    293.34092    424.52761    7163.7363    8147.0014   -16936.147 
   55800    292.57244    419.09155     7188.841    8165.2063   -17201.602 
   55900    309.09531    405.88513    7203.4646    8198.0952   -17354.441 
   56000    301.82374    413.90245    7235.9295     8224.727   -17259.469 
   56100    292.68819    423.71439    7269.0155    8250.2241   -17187.677 
   56200    296.26306     413.8405     7292.646    8270.7899   -17361.183 
   56300    302.59724     407.4528    7308.2832    8292.1043   -17524.216 
   56400    300.08417    415.75598    7328.9595    8316.2971    -17449.37 
   56500    295.19049    428.01278    7354.6945    8344.9677   -17347.058 
   56600    297.61138    416.52455    7385.0921    8368.4883   -17484.722 
   56700    296.11233    405.41078     7420.311    8389.7381   -17762.258 
   56800    300.42967    409.93386    7426.9388    8409.1124   -17676.483 
   56900    302.85598    426.76644    7442.0702    8445.6979   -17379.541 
   57000    304.41555    415.72068    7469.3644    8464.9168   -17642.323 
   57100    300.52105    408.77248    7511.5882    8492.7744   -17847.507 
   57200    277.58711    417.08693    7566.3146    8512.1322   -17716.593 
   57300    299.48806    419.40888    7552.4306    8542.2856   -17721.747 
   57400    298.92559    420.59421    7578.4857    8568.4547     -17773.7 
   57500    283.93863    417.92619     7633.564    8592.3188    -17900.98 
   57600    297.21079    421.38915    7624.2753     8611.773   -17926.291 
   57700    307.47411     421.6665    7635.3356    8642.6596   -17878.634 
   57800      301.215    421.75121    7672.4712     8667.958   -17876.921 
   57900    309.93311    414.00891    7685.0773    8689.4274    -18054.75 
   58000    295.31341      421.177    7729.1518    8712.8234   -18022.033 
   58100    308.95645    429.95606    7729.3283    8747.7654   -17880.408 
   58200    301.09294    420.56832     7772.116    8766.1874   -18077.824 
   58300    297.81414    415.44368    7809.8335    8792.5349   -18293.259 
   58400     302.7627    424.94308    7811.9539    8813.5805   -18094.968 
   58500    298.46815    426.63152    7838.5909    8833.7259   -18180.347 
   58600    296.91862    428.22264    7874.4441    8868.2188   -18199.521 
   58700    292.59291    421.89623    7916.0541    8895.2631   -18345.579 
   58800    301.56245    417.76449    7928.9658    8921.1276    -18431.18 
   58900    302.53892    432.39475    7934.4116    8943.0637   -18223.155 
   59000    299.60137    427.14619     7969.369    8967.1772   -18315.762 
   59100    314.05656    415.92763     7980.268     8994.391   -18548.704 
   59200    299.76169    423.57422    8025.9485    9020.4901   -18464.749 
   59300    303.43856     429.4505    8044.2208    9051.6422   -18359.622 
   59400    309.38031    419.90221    8068.3605     9077.551   -18588.113 
   59500    306.51195    422.73575    8087.3549    9093.9155   -18602.295 
   59600    300.62383    430.20464     8118.269    9121.0832   -18537.276 
   59700    300.87031    434.07992    8139.5563    9146.7152   -18593.091 
   59800    307.85575    431.50947    8162.1784    9180.0723   -18664.996 
   59900    303.98318    430.60495    8195.6033    9205.2164   -18710.575 
   60000    297.58712    421.07784    8236.1761    9224.0793   -18844.899 
   60100    306.02761    433.78592    8238.9426    9255.6308   -18672.985 
   60200    293.86591    437.28687    8279.3748    9276.3991   -18688.901 
   60300    302.36562     424.9444    8305.8801    9306.7517   -18962.721 
   60400    305.90479    431.18919    8323.6666    9337.5241   -18924.937 
   60500     303.6462    436.69139    8340.4299    9355.4877   -18768.131 
   60600    297.46436    428.64743    8387.5451     9382.784   -18975.283 
   60700    301.74792    434.35864    8403.9399    9413.0492   -18972.814 
   60800    305.65319     427.7357    8425.1266    9435.0515   -19003.679 
   60900    292.35353    428.74254    8474.2386    9459.8379   -19100.376 
   61000    295.03644    436.60213    8494.1031    9492.6722   -19055.917 
   61100    295.47961     432.4828    8518.7312    9514.0252   -19119.565 
   61200    288.16753    423.19216    8569.3763     9541.452    -19391.41 
   61300    297.76866    440.58069    8560.6325    9568.3843   -19101.934 
   61400    305.07621    437.07872     8572.959    9591.1278   -19163.325 
   61500    293.34336    420.14777    8647.9701      9626.86   -19535.928 
   61600    299.49748    434.00101    8645.5549      9650.02   -19274.875 
   61700    300.31921    441.68159    8661.8346    9675.5455   -19208.354 
   61800    297.64152     431.5427    8707.7075    9706.1792   -19361.402 
   61900    305.78679     429.5888    8719.0314    9731.0638   -19520.606 
   62000    282.23145    426.47469    8793.0392    9757.0907   -19592.376 
   62100    290.30867    435.85011    8798.0229    9786.8348   -19470.907 
   62200    304.65058    449.10772    8778.6145    9808.0017   -19315.337 
   62300    304.00816    433.33778    8823.3526    9835.7462   -19672.584 
   62400    307.51092    429.57399    8843.6469    9858.9485   -19805.487 
   62500    294.50714    443.36319    8889.1526    9893.4746   -19578.362 
   62600    312.48563    440.69893    8885.2408    9921.1429   -19626.851 
   62700    309.66613    429.80778    8926.9356    9946.5761   -19859.104 
   62800    297.11888    440.04442    8971.3968    9977.3747   -19752.207 
   62900    292.23714    445.08427    8994.8328    9996.5522   -19746.233 
   63000    308.58056    435.85498    9007.2659    10030.886   -19898.207 
   63100    293.65764    442.48723     9054.041    10055.869    -19787.47 
   63200    298.12438    432.18268    9088.1316    10088.163   -20005.995 
   63300    289.52661    438.44932    9127.0741    10116.996    -20028.02 
   63400     298.8774     445.9523    9119.8012    10135.037   -19911.557 
   63500    301.50477    442.76456    9146.7644    10163.816   -20110.471 
   63600    307.58531    444.23053    9166.3653    10196.465   -20109.495 
   63700    290.88625    449.16834    9220.8951    10224.125   -20052.627 
   63800    291.48366    435.76001     9256.391    10247.351   -20235.872 
   63900    302.81048    436.55235    9259.2738    10272.601   -20209.462 
   64000    295.51727    442.34135    9292.6854     10297.91   -20185.781 
   64100    303.04534    437.16546    9315.0945    10329.482   -20302.985 
   64200    292.60582    438.01426    9370.1466    10365.498   -20303.976 
   64300     306.6183    443.32071    9359.0162    10386.364   -20233.639 
   64400    289.99457    439.74823    9427.0654    10419.177   -20417.084 
   64500    301.61516    444.40464    9426.1347    10445.037   -20403.019 
   64600    299.48994    444.24363    9461.3779    10476.071   -20422.669 
   64700    287.83661    443.98324    9509.6111    10501.848   -20518.633 
   64800    301.77951    440.84614    9518.7376    10534.395   -20554.342 
   64900    301.39756    450.59176    9539.3121    10563.987   -20549.328 
   65000    307.67827    447.02956    9552.9138     10585.99   -20592.829 
   65100    296.54172    451.50762    9601.6358    10617.978   -20587.493 
   65200    291.92242      448.284    9639.1908     10643.51   -20646.635 
   65300    292.58984    443.06644    9676.1131    10676.486   -20801.565 
   65400    289.49946      448.907    9703.1262    10703.454   -20673.412 
   65500    294.97482    450.13677    9715.3777    10727.364   -20745.272 
   65600    299.20351    444.96997    9739.2612    10754.135   -20865.264 
   65700    299.68898    450.66138    9762.2955    10783.786   -20765.052 
   65800    294.38577    448.20119    9798.8211     10807.75    -20916.67 
   65900     297.4588    445.72208    9832.7852    10845.088   -21030.446 
   66000    294.74153    454.37177    9855.1769    10870.954   -20890.882 
   66100     309.4286    454.17898    9858.5054    10902.065   -20959.382 
   66200    302.29508    445.99646    9902.5443    10924.334   -21156.731 
   66300    289.65979    445.33939    9960.7688    10957.834   -21113.792 
   66400     309.9982    449.25986    9947.8455    10987.571   -21056.956 
   66500    307.53748    456.22664    9977.6901    11019.695   -21087.994 
   66600    314.79198    451.19887    10000.149    11050.944   -21179.111 
   66700    303.60815    444.71063    10049.995        11073   -21316.378 
   66800    293.85752    447.73635    10097.765    11105.223   -21299.543 
   66900    301.09298    457.45071    10105.642    11136.596   -21131.418 
   67000    299.70858    444.99616    10153.598    11169.461   -21446.208 
   67100    307.70468    450.88559    10161.707    11198.689   -21474.766 
   67200    299.15062    457.43137    10193.749    11220.984   -21332.375 
   67300    302.00951    450.10871    10224.784    11250.141   -21444.502 
   67400    299.29059    448.57838    10258.974    11277.623   -21643.867 
   67500    310.03897     454.0156    10260.181     11304.74   -21552.597 
   67600     303.7873    462.29806    10298.648    11339.581   -21467.758 
   67700    294.90172    459.36822    10355.039    11376.118   -21571.726 
   67800    290.00538    452.16404    10393.504    11398.052    -21677.57 
   67900    297.98562    446.06091    10416.347    11429.992   -21839.254 
   68000    301.46487    463.44079     10424.48    11462.132   -21590.828 
   68100    301.63762     468.2193    10445.305    11488.064   -21589.422 
   68200    290.92821     452.6227    10510.478    11517.243   -21932.751 
   68300    302.03953    453.74928    10516.254    11545.309   -21924.032 
   68400    304.46438    461.94869    10531.884    11573.757   -21795.093 
   68500    298.29081    466.71338    10567.162    11602.041   -21863.826 
   68600    295.78583    465.25276    10609.271    11637.918   -21964.038 
   68700    294.56852    459.05825    10651.693    11671.827   -22048.065 
   68800    296.20108    458.85697    10671.619    11694.662   -22115.376 
   68900    312.38241    472.83898    10659.875    11727.721   -21895.909 
   69000    293.15258    470.37519    10725.254    11754.008   -22006.935 
   69100    308.67741    458.37935    10741.957    11788.286    -22255.57 
   69200    297.22217    469.13766    10784.408    11819.676   -22149.801 
   69300    299.86552    475.04066    10803.313    11849.519   -22033.756 
   69400    295.01176    463.08372    10853.737    11878.741   -22318.977 
   69500    304.87156    464.30882     10861.27    11906.279   -22343.844 
   69600     299.4918    469.81085    10901.402    11941.667   -22289.658 
   69700      297.424    477.88113     10924.84    11969.235    -22295.14 
   69800     304.2521    480.59129    10940.119     12000.23   -22304.177 
   69900    296.95204    461.58382    11004.109    12031.308   -22660.696 
   70000     311.0852    472.87424    11000.645    12066.055   -22538.321 
   70100    297.08726    493.51849    11031.297    12090.689   -22231.283 
   70200    300.60921     473.0473    11072.528    12118.157   -22561.837 
   70300    297.93225    458.98064    11131.022    12157.486     -22842.5 
   70400    300.26374    483.48463    11132.764    12188.172   -22524.689 
   70500    293.24375    480.82398    11168.456    12207.832    -22581.15 
   70600    291.66985    470.83944    11224.949    12251.343   -22783.484 
   70700     293.8617    475.22794    11242.574    12277.531   -22730.813 
   70800     307.7609    475.48636    11243.903    12305.593   -22823.717 
   70900     306.3278    486.83915    11272.338    12342.652   -22755.024 
   71000    301.68365    480.48757    11312.753    12367.869   -22845.058 
   71100    310.73549    470.09934    11333.115    12395.084    -23062.51 
   71200    295.69513    482.40722    11387.348    12432.977   -22924.182 
   71300    310.36967    491.68195    11377.921    12460.776   -22793.729 
   71400    301.08947    475.67869    11442.371    12491.546   -23188.563 
   71500    291.11846    484.05444    11487.762    12526.321   -23109.738 
   71600    304.30675    490.20896    11482.307    12552.141   -22956.519 
   71700    299.07379    477.64832    11541.958    12589.264   -23185.277 
   71800    315.20383    481.66365    11542.356      12624.4   -23147.722 
   71900     299.2256    486.49848    11597.068    12653.512   -23133.776 
   72000    292.77302    491.48692    11634.218    12683.361   -23198.579 
   72100    300.03248    490.28655    11651.723    12713.493   -23266.551 
   72200    298.66535    491.60511    11681.622    12742.106   -23332.085 
   72300    290.74653    488.17758    11733.718    12775.691   -23406.394 
   72400    299.39247    502.12861    11742.314    12814.706   -23279.477 
   72500    312.07536    495.43703    11749.979    12839.838   -23394.466 
   72600    292.34093    489.30536    11830.862        12877   -23542.139 
   72700    298.13795     496.2926    11841.966    12906.133   -23469.052 
   72800    294.38612    496.51803    11878.381    12935.627   -23539.266 
   72900    297.33572    499.33283    11902.463    12968.142   -23573.744 
   73000    310.41075    497.67936     11914.35     13003.28   -23550.061 
   73100     287.2688    495.00322    11988.238    13030.413   -23717.637 
   73200    302.68992      496.809    11995.209    13068.563   -23714.388 
   73300     298.8715    500.44297      12024.4    13094.114   -23673.388 
   73400    285.23573    498.70888    12082.596    13124.604   -23800.453 
   73500    295.67743    491.72705    12106.123    13161.038   -23910.389 
   73600    306.38136    506.52234    12103.622    13193.721   -23765.858 
   73700    288.09898    503.69813    12173.107    13225.558    -23891.76 
   73800    303.79752    496.04768    12190.147    13264.849   -24025.838 
   73900    297.67871    496.80203    12222.872    13286.674   -23972.499 
   74000    301.40274    496.86907    12247.732    13318.694   -23997.802 
   74100    306.67341    503.38006    12269.139    13356.652   -23984.194 
   74200    290.95581    501.47589     12329.45     13385.12   -24090.053 
   74300    294.59384    495.96125    12369.012    13426.097   -24221.271 
   74400    289.88939    501.58236     12396.04    13449.785   -24114.627 
   74500    290.13096    504.63621    12430.266    13487.525   -24157.537 
   74600    301.39682    501.08828    12445.616    13520.786   -24291.604 
   74700     297.6632    509.51165    12478.363    13554.845   -24220.035 
   74800    296.95526    508.28761    12507.275    13581.184   -24286.072 
   74900    293.94461     497.7439    12556.071    13613.702   -24444.714 
   75000    300.22789    500.52583    12582.882    13655.264   -24420.553 
   75100    293.07112      509.571    12611.413    13679.207   -24399.868 
   75200    297.05648    509.25748    12644.916    13719.988   -24509.252 
   75300    316.39344    507.74062    12641.827    13752.214    -24483.33 
   75400    300.09959    505.53518     12706.05    13783.197   -24615.783 
   75500    290.97157    505.98972     12754.48    13814.694   -24650.462 
   75600     304.3795    514.43078    12758.332    13852.526   -24488.403 
   75700    287.79023    507.13637      12822.5    13877.801   -24730.895 
   75800    293.09428    502.23471    12853.161    13913.663   -24791.774 
   75900    305.51884     508.9815    12852.958    13943.873    -24646.86 
   76000    298.37768    507.27138    12905.259    13980.861   -24815.893 
   76100    309.96398    505.18979    12921.261    14016.851   -24893.801 
   76200     301.3935    513.12123    12961.055    14048.252   -24847.515 
   76300    298.25315    508.66314    13002.878    14079.635   -24930.085 
   76400    304.46373    509.17284    13028.264     14117.36   -24937.602 
   76500     310.1926    512.11308    13048.536    14151.484     -24977.6 
   76600    300.63587    504.34356    13106.482    14183.458    -25175.24 
   76700    288.16779    508.72927    13158.394    14216.007   -25118.815 
   76800     301.6364    517.97584    13157.885    14250.399   -25020.708 
   76900    296.34171    513.54694     13207.45     14285.45    -25159.79 
   77000    293.21246    510.79863    13247.662    14316.953   -25209.676 
   77100    308.75014      504.535     13261.87    14354.493   -25299.155 
   77200    294.14436    511.92318    13314.474    14386.665    -25258.41 
   77300    304.19888    519.15869    13323.928    14422.505   -25185.885 
   77400    306.80568    510.72018    13354.273    14449.378   -25394.713 
   77500    286.28554    511.33543    13427.636    14484.271   -25497.018 
   77600    307.47647    521.67925    13410.506    14517.847   -25304.698 
   77700    295.12582    516.99148    13481.522    14560.651    -25457.63 
   77800    299.94059     514.3895     13510.54    14596.237   -25635.813 
   77900    298.20969    525.38766    13533.709    14627.108   -25447.173 
   78000    283.55098    519.08331    13595.741    14654.914   -25573.046 
   78100    297.84431    510.73642    13613.772    14691.824   -25687.961 
   78200    292.41752     515.9806    13651.312    14724.271   -25682.037 
   78300    294.24193    515.78942     13683.48    14759.723   -25692.413 
   78400    297.26809    518.67989      13712.3    14797.197   -25706.955 
   78500    302.94615    515.81209    13734.216    14827.061   -25793.178 
   78600    290.14891    512.70308    13798.726    14864.086   -25912.835 
   78700    303.74138    528.00919    13799.077    14905.634   -25779.991 
   78800    307.41245    527.82106    13825.286    14938.647   -25802.949 
   78900    291.51546    511.75412    13899.429    14966.443   -26121.496 
   79000    300.77949    517.41506    13914.013    15004.334   -26050.599 
   79100      295.081    528.75341    13939.488    15030.294   -25908.803 
   79200    287.78755    531.90859    13997.139    15077.208   -26039.879 
   79300    305.69219    523.48216    14009.128    15114.873   -26131.814 
   79400    302.02686    512.80826    14058.281    15146.371   -26260.381 
   79500    304.52067    522.85492    14073.684    15176.571   -26181.241 
   79600    316.93343    536.54712    14073.887    15214.109   -25988.951 
   79700    310.70413     522.3108    14131.447    15245.567    -26272.95 
   79800    306.35294    513.90661    14188.893    15286.321   -26483.897 
   79900    298.09913    530.14721    14223.024    15320.971   -26271.368 
   80000    304.78105    536.22616    14228.708    15345.462   -26233.973 
   80100    310.08892    526.20541    14275.246     15392.09   -26497.759 
   80200    311.42859    526.06687    14303.288    15422.544   -26507.564 
   80300    283.47929     531.0253    14388.669    15459.648   -26547.829 
   80400    299.65353    544.95295    14378.625     15494.34   -26408.056 
   80500    303.39614    535.36468    14417.077    15530.332    -26553.01 
   80600    300.50512    521.37988    14467.993    15561.756   -26840.228 
   80700    307.83631    537.23513    14478.467    15602.049   -26622.609 
   80800    321.73888    553.59393    14472.612    15639.034   -26433.809 
   80900     300.9778    529.44568    14568.099    15670.828   -26884.795 
   81000    301.94234    535.56559    14591.034     15701.72    -26844.63 
   81100    295.70624    551.41465    14618.084    15732.742   -26672.178 
   81200    299.71758    544.68502    14665.427    15780.996   -26840.212 
   81300    314.23467    550.03043    14670.245     15818.81   -26862.914 
   81400    289.50259    544.50989    14756.437    15852.373   -26958.175 
   81500    301.50219    548.57433    14760.321    15883.178   -26982.241 
   81600    301.71808    550.78268    14797.717    15923.194    -26937.98 
   81700    300.61281     552.7494    14832.147    15957.485   -27010.797 
   81800    309.84366     548.4656    14855.317    15993.954   -27180.227 
   81900    311.50442    555.21914    14878.983    16027.536   -27096.933 
   82000    297.74163    554.07234    14941.124    16062.316   -27229.502 
   82100    295.20536    556.43457    14983.873    16102.596   -27189.822 
   82200    297.11832    564.21076    15007.829    16137.972   -27155.409 
   82300    301.09787    550.44734    15056.727    16180.686   -27433.122 
   82400    303.27738    556.43335    15084.183    16218.281   -27400.611 
   82500    302.43415    564.69481    15101.435    16242.188   -27248.073 
   82600    297.81894    560.79182    15157.488    16285.547   -27373.047 
   82700    298.06579    559.03615    15196.739    16323.512   -27453.918 
   82800     307.1809    558.67272    15210.111    16353.883   -27445.517 
   82900    290.63368    557.03652     15286.78    16397.398   -27577.739 
   83000    303.14116    562.33133    15287.601    16427.337   -27502.031 
   83100    305.03135    559.24176    15322.893     16463.14   -27604.667 
   83200    302.48728     549.5569    15376.018    16501.734   -27738.763 
   83300    311.59567    558.42969    15390.943    16542.881   -27624.963 
   83400    283.47233    565.52359    15466.864    16572.328   -27711.534 
   83500    306.52723    558.10389    15470.351    16612.309   -27827.667 
   83600    302.74051    556.22994    15512.285    16645.156   -27866.428 
   83700    304.74045    556.03488    15553.336    16689.821   -27921.871 
   83800    301.42213    563.38302    15595.431    16732.944   -27791.201 
   83900    306.30485    559.83562    15622.957    16766.223     -27850.6 
   84000    288.29552     545.8806     15703.03    16798.038   -28187.633 
   84100    299.38474    553.04595    15707.697    16830.992    -28079.75 
   84200    301.99676    565.66396    15732.395    16873.284   -27932.505 
   84300    306.98671    563.72762    15763.459    16911.915    -28022.01 
   84400    296.77902    552.79195    15825.725    16943.803   -28234.222 
   84500    294.65464    550.59988     15864.73     16976.57   -28269.212 
   84600    305.51771    568.87888    15868.435    17019.245   -28147.144 
   84700    305.58382    575.19624    15905.345    17062.598    -28064.02 
   84800     299.2045    551.41831     15972.99    17094.314   -28418.733 
   84900    300.76759    545.51262    16014.516    17132.912   -28553.773 
   85000    290.34584    573.24385    16042.424    17168.701    -28227.43 
   85100    298.55542    572.55406    16059.172    17200.395   -28338.516 
   85200    308.43492    554.96314    16106.487    17248.938   -28558.879 
   85300     296.8837      555.562    16165.725    17286.772    -28624.26 
   85400     306.1737    559.75984    16172.601    17315.542   -28633.255 
   85500    298.79597    569.42515    16222.163    17360.716   -28514.973 
   85600    292.20936    569.13845    16269.401    17395.122   -28570.785 
   85700    294.90031    549.71111    16321.641     17433.06   -28903.711 
   85800    307.56182    560.91181    16320.224     17466.96   -28747.157 
   85900    305.34089    574.67281    16354.822    17511.089   -28590.904 
   86000    300.37127    571.69728    16405.197    17549.023   -28800.012 
   86100    290.17758    563.76138    16468.527    17585.001   -28926.149 
   86200    313.50503     568.3272      16457.1    17622.572   -28864.208 
   86300    292.07408    574.50523    16533.606    17664.435   -28903.554 
   86400    308.32288    581.82949    16531.417    17700.521    -28820.88 
   86500    309.58693    570.09113    16573.723    17733.496   -29022.738 
   86600    300.01012    563.57192    16642.285    17777.298    -29151.45 
   86700      308.592    579.62727    16654.709    17822.123    -29011.89 
   86800    301.71978    579.38158    16698.082     17852.16   -29094.122 
   86900    292.28954    577.75505    16758.499    17892.989   -29215.797 
   87000    303.29832    582.39751    16763.523    17923.625   -29157.921 
   87100    298.08675    577.89552    16820.157     17965.83   -29353.433 
   87200    312.32329     577.1186    16840.026    18012.038   -29388.468 
   87300    299.09933     588.2165    16894.182    18052.105   -29240.235 
   87400    300.66967     587.1858    16922.142    18082.024   -29363.961 
   87500    303.97018     583.0153    16965.833    18127.831   -29468.592 
   87600    290.04395    588.64014    17023.351    18164.448   -29526.267 
   87700    295.52603    600.37368    17039.219    18202.492   -29410.673 
   87800    303.25292    598.68847    17067.001    18243.306   -29458.069 
   87900    308.78415    582.36709    17103.008    18273.528   -29685.537 
   88000    297.42758    585.11569     17169.56    18321.197   -29740.562 
   88100    300.56808    607.17544    17179.418    18359.096   -29422.267 
   88200    291.75999     599.2777    17237.804    18392.808   -29634.282 
   88300     300.3305     583.7911    17278.622    18434.464   -29918.976 
   88400    298.33063    591.75284    17312.952    18472.946   -29859.544 
   88500    295.76639    602.14502    17346.967    18512.469   -29756.931 
   88600    306.70655      605.605    17367.852    18557.652   -29766.352 
   88700    302.22782    601.83472     17414.04    18591.539   -29913.505 
   88800    288.66742    584.04038    17493.011    18626.887   -30141.241 
   88900    295.02928    600.55304    17508.557    18671.063   -29989.234 
   89000    292.97403    606.30817    17543.762    18708.109   -29919.154 
   89100    302.86188    598.51477    17571.459    18746.846   -30102.947 
   89200    301.37081    591.75034    17625.103    18790.886   -30238.672 
   89300    299.97016    597.55367     17647.82    18816.738   -30152.453 
   89400    303.97814    604.76495    17681.431    18865.194   -30139.359 
   89500    303.91657    603.89705    17721.712    18904.491   -30188.289 
   89600     299.3008    591.24167    17784.319     18945.65   -30356.573 
   89700    296.61137    587.19257    17838.056    18990.215   -30433.632 
   89800    304.28669    604.58434    17840.886    19025.056   -30241.585 
   89900    294.53371     594.4649    17903.275     19058.75   -30465.189 
   90000    308.95569    592.63582    17922.997    19104.113   -30490.269 
   90100    302.12515    600.25713    17969.368    19145.094   -30455.083 
   90200    294.23702    599.01977    18025.795    19185.259   -30617.657 
   90300    294.62064    597.51259    18067.516    19226.203   -30684.999 
   90400     304.6843    610.15714     18066.09    19256.591   -30441.925 
   90500    296.58818    604.61158    18136.371    19305.905    -30676.83 
   90600    311.12907    594.67507    18161.021    19348.315    -30789.13 
   90700    302.62191    602.47184    18204.311    19383.198   -30683.294 
   90800    300.40977     607.7756    18242.112     19422.09   -30687.702 
   90900    307.09436    603.44573    18280.112    19468.492   -30882.405 
   91000     307.3944    594.92186    18327.267    19507.695   -30978.144 
   91100    307.04788    603.65344    18359.286    19547.785   -30940.468 
   91200    300.30796    618.11012    18401.078    19591.196   -30830.026 
   91300    307.32978    604.06823    18436.566    19626.017   -31030.883 
   91400    295.47442    602.49293    18505.829    19671.124   -31164.672 
   91500    310.60991    614.77442     18502.06    19708.465   -31035.103 
   91600    287.33593    620.50942    18580.203    19748.012   -31077.375 
   91700    309.71316    618.75651    18576.963    19785.642    -31072.87 
   91800    303.53975    610.47148    18638.503    19827.138   -31243.623 
   91900    304.18272    612.30435     18682.13    19873.823   -31388.578 
   92000    308.45358    631.81513    18692.789    19912.127   -31113.373 
   92100    306.87935    632.55698    18734.179    19951.261   -31126.361 
   92200    292.30653    604.31732    18826.765     19987.85   -31602.924 
   92300    308.70175     615.7554    18825.442    20029.193   -31470.292 
   92400    301.75659    631.47247    18864.095    20070.335   -31320.112 
   92500    296.49804     627.5017    18924.308     20116.56   -31459.592 
   92600    303.03858    618.11891    18960.308    20155.636   -31614.533 
   92700    301.88085    611.30163    19008.613    20194.919   -31720.975 
   92800    295.54831    631.66444    19040.841    20235.447   -31558.714 
   92900    306.04287    640.13876    19060.058    20283.128   -31394.954 
   93000    298.44492    614.74512     19135.63    20318.834   -31824.873 
   93100    296.12975    619.13531     19181.95    20365.134   -31852.997 
   93200    299.08103    633.17963    19202.101    20404.952   -31677.949 
   93300    296.30483    624.98097    19255.332    20444.696    -31845.56 
   93400    302.47513    628.69243    19283.059    20487.887   -31919.552 
   93500    301.48088    627.27019     19324.29    20525.802   -31890.668 
   93600    292.71298    620.33997     19392.89    20570.771   -32076.439 
   93700    298.04946    619.75789    19423.712    20611.176   -32071.964 
   93800    295.14038    626.74294    19463.788    20652.696   -32059.261 
   93900     300.3459    633.07549    19484.826    20689.982   -31978.242 
   94000    307.25959    628.19272    19517.391    20730.833   -32101.174 
   94100    297.33323    608.12846     19602.09     20776.56   -32429.469 
   94200     288.0279    627.73705    19645.666    20822.021   -32202.796 
   94300     296.6105    646.90237    19650.539    20862.407   -31984.674 
   94400     297.1375    625.14689    19712.283    20903.399   -32370.381 
   94500    305.73044     618.4059    19748.692    20949.434   -32523.006 
   94600    295.09516    632.09137    19787.785    20981.956   -32347.378 
   94700    296.62905    640.79011    19824.612    21030.402   -32337.842 
   94800    303.62678    642.08442    19851.518    21071.932   -32323.516 
   94900    296.15348    617.33327    19933.193    21114.621   -32702.838 
   95000    298.13406    617.46337    19967.861    21153.191   -32803.311 
   95100     304.0058    647.99564     19964.37    21191.417   -32400.959 
   95200    304.27678    644.47361    20014.961    21239.002   -32532.179 
   95300    294.74081    621.01097    20095.911    21278.326   -32864.704 
   95400    302.76668    631.25312    20115.105    21323.049   -32767.736 
   95500    290.60935    646.32838    20167.924    21367.787   -32719.404 
   95600    303.47214    640.86339    20200.824    21419.722   -32801.737 
   95700    300.55913    641.25037    20238.194     21451.93   -32834.992 
   95800    288.56429    646.60606    20294.682    21490.927   -32955.684 
   95900    298.18694    651.06033    20320.966    21539.994    -32886.29 
   96000    293.05117    638.00598    20379.011    21575.203   -33089.849 
   96100    298.99443    643.72178    20408.325    21621.552   -33114.479 
   96200    293.82741    665.54829    20437.189    21662.402   -32882.016 
   96300    292.56341    649.38053    20500.905    21707.542   -33166.983 
   96400    288.03104    637.02904    20566.975    21752.627   -33379.809 
   96500    301.95181    656.31425    20563.494    21794.948   -33142.574 
   96600    289.63821    668.43862    20611.689    21831.812    -33137.43 
   96700     308.5534    660.74548    20632.783    21881.241   -33204.055 
   96800    301.27929    651.46248    20698.161    21923.481   -33334.544 
   96900    296.77035    648.29611    20751.762    21965.328   -33539.443 
   97000    302.22252    665.82559    20762.197    22003.677   -33319.292 
   97100    294.72763    668.95609     20825.79    22056.125   -33281.735 
   97200    299.42404    647.11396    20877.012     22094.45   -33665.944 
   97300    304.45283    654.78407    20899.328    22134.015   -33605.581 
   97400    303.62038    662.76128    20937.422    22178.501   -33511.286 
   97500    303.65346    655.23401    20989.723    22223.337   -33637.927 
   97600    312.01296    655.85336    21013.697    22263.853   -33667.712 
   97700     309.6752      655.555    21066.715     22312.12   -33736.848 
   97800     313.5935    654.15198    21105.475    22356.941   -33728.029 
   97900    288.78877    658.91848    21188.032    22397.018   -33765.509 
   98000    305.99206    656.36151    21199.918    22439.114   -33848.143 
   98100    305.11662    655.87837    21244.841    22481.886   -33852.469 
   98200     289.6597    655.95858    21315.241    22522.926   -33929.341 
   98300    308.24567    651.80899    21331.447    22570.383   -34099.613 
   98400    300.33613    663.83322    21379.515     22615.41   -33976.785 
   98500    307.59121    662.33552    21406.093    22654.309    -33990.94 
   98600    291.48517     655.6332     21495.56    22706.396   -34185.311 
   98700    291.83784    657.87774    21539.635    22753.388   -34190.848 
   98800    298.19116    661.07017    21563.553    22792.599   -34202.178 
   98900    292.60807    672.14674    21608.396    22837.885   -34194.352 
   99000    298.47724    673.48976    21640.235    22882.245   -34179.573 
   99100    305.43909    660.42543     21680.88    22923.087   -34444.557 
   99200    287.98687    667.41483    21753.248    22969.203   -34450.086 
   99300    282.40567    684.85529    21786.535    23009.299   -34238.044 
   99400    307.53986    676.56086    21790.269    23052.612   -34427.717 
   99500    302.86907    661.22128    21859.142     23097.25   -34625.717 
   99600    287.54828     669.4685    21923.996    23141.168    -34622.92 
   99700    304.11242    686.45299    21927.021    23192.729    -34519.83 
   99800     290.1231    698.69177    21987.074    23238.374   -34417.111 
   99900    295.69693    677.55165    22029.903     23270.68   -34709.647 
  100000    292.71505    669.62313     22096.98    23324.148   -34937.049 
  100100    307.54995    699.52308    22084.535     23369.86   -34612.467 
  100200    298.78823    700.87264    22132.577    23402.563    -34613.17 
  100300    302.18811    679.83959    22198.968    23454.397   -34935.096 
  100400    306.11315    678.66012    22241.881    23503.606   -34982.291 
  100500    304.28126    691.06714    22280.339    23550.982   -34887.786 
  100600    302.36987     694.2616    22323.316    23593.513   -34906.992 
  100700     295.1937    687.31664     22387.55    23637.134   -35008.983 
  100800    302.21371    687.13298    22411.864    23674.635   -35069.264 
  100900    293.03877    692.81271    22471.416    23722.391   -35024.598 
  101000    299.74956    676.96918    22525.694    23773.608   -35332.124 
  101100    297.95226    684.33999    22567.149     23819.01   -35267.785 
  101200    309.55228    703.91563    22566.558    23860.089   -34985.326 
  101300     297.3078    690.16424    22648.507    23904.964    -35227.08 
  101400    296.91974    665.91054    22721.932    23953.397   -35578.001 
  101500    311.76728    680.35721    22724.892    23999.084   -35403.687 
  101600    298.52161    701.65519    22765.631    24035.892   -35238.906 
  101700      296.358    696.91773    22823.482    24084.884   -35361.373 
  101800    291.47538    675.35422    22901.183    24131.722   -35667.979 
  101900    288.00243    681.86958    22950.822    24181.261   -35668.905 
  102000     308.5713     705.3988    22931.856    24225.002   -35382.248 
  102100    308.10872    689.88254    22991.627    24268.376   -35607.613 
  102200    305.06775    682.88411    23051.171    24315.129   -35786.457 
  102300    299.93818    702.51496    23085.793    24359.611   -35623.593 
  102400    294.21655    696.28314    23146.507    24403.196   -35765.168 
  102500     297.1379    684.12144    23194.472    24444.563   -35982.859 
  102600    299.77209    706.25164    23214.596    24491.835   -35742.562 
  102700    298.42357    715.05388    23260.229    24543.701   -35775.219 
  102800    301.53323    701.71599    23317.879    24593.937   -35954.868 
  102900    299.68384    699.16568    23362.433    24632.418   -36077.703 
  103000    298.57467     706.6675     23401.01    24676.384   -36035.885 
  103100    285.19914    728.21293    23448.784    24720.226   -35872.197 
  103200    297.23493    712.74824    23488.716    24767.619   -36092.738 
  103300    302.86251    696.52152     23550.13    24823.525   -36348.685 
  103400    302.08812    714.19031    23578.541     24868.13   -36142.365 
  103500    304.66642    729.85946    23594.404    24904.573   -36063.859 
  103600    298.32095    706.10766    23677.229    24951.559   -36360.975 
  103700    305.81231    706.63617     23712.83    25001.959   -36389.436 
  103800    306.30577    712.49316    23753.597    25049.522   -36377.981 
  103900    306.74859    718.25205    23792.566    25095.093   -36288.098 
  104000     301.0974    711.26733    23858.602    25143.381   -36433.428 
  104100    292.41535    706.37774    23928.077    25191.429   -36601.304 
  104200    308.67952    710.69676    23936.162    25234.812   -36534.855 
  104300    297.15632    709.75142    24003.991    25279.747    -36592.54 
  104400    296.52239    703.23669    24060.126     25328.16   -36725.958 
  104500    305.71163    712.68123    24075.032    25370.013   -36640.662 
  104600    300.51717    705.13924    24140.752    25418.298    -36760.98 
  104700    301.81855    708.88364    24191.359    25475.128   -36761.821 
  104800    299.66366     710.9212    24233.784    25515.486   -36763.631 
  104900    316.59679    701.91185    24254.316    25559.261   -36925.712 
  105000    298.54902    711.35919    24325.495    25605.512   -36871.674 
  105100    303.53775    719.46727     24355.44    25653.067   -36845.737 
  105200     305.6406    706.04679    24409.824    25698.036   -37104.429 
  105300    296.72989    716.04554    24463.719    25744.957   -37079.753 
  105400    289.84651    727.43956     24510.31    25789.831   -37025.021 
  105500     304.3885    726.59442     24533.99    25840.365   -37130.827 
  105600     304.5568    725.12291    24585.154    25890.378   -37210.028 
  105700     303.0422    730.96196    24623.739    25931.917   -37222.365 
  105800    298.93181    732.59619    24685.183    25987.165   -37206.784 
  105900    299.32551    733.91442    24722.338    26026.389   -37248.323 
  106000    308.99138    725.93666     24766.98    26081.464   -37433.044 
  106100    302.33713    741.80396    24808.588    26126.264   -37306.715 
  106200    303.68801      751.785     24839.96    26170.191     -37208.6 
  106300    290.82897    723.18245    24939.302    26216.438   -37674.206 
  106400    307.02076    733.60396    24952.739    26271.137   -37631.637 
  106500     302.2459    754.28408    24981.318    26311.301   -37386.128 
  106600    301.44371    743.43057    25042.573    26360.175   -37584.216 
  106700    304.63426     723.8479    25106.234     26410.33   -37806.374 
  106800    291.70635    742.67992    25160.854    26459.158     -37629.3 
  106900    296.52653    742.38768    25202.054    26509.247   -37633.743 
  107000    312.32218    735.07458    25222.824    26552.791   -37788.858 
  107100    293.74189    723.12852    25313.981    26596.611   -37977.976 
  107200    302.11825    739.39976    25331.042    26645.898   -37808.005 
  107300    295.93075     744.4412    25391.844    26699.956   -37857.864 
  107400    302.03319    732.77502    25440.097    26748.166   -38023.447 
  107500    297.29352    729.11163    25494.821    26790.199   -38089.496 
  107600     313.6668    744.21704    25495.068    26836.738   -37905.208 
  107700      291.287    741.60587    25595.802    26892.233   -38072.418 
  107800    286.96679    725.89981    25666.322    26938.818   -38250.543 
  107900    309.21337    729.93735    25666.188    26985.095   -38295.373 
  108000    292.01383    746.09406    25728.156    27030.459   -38148.648 
  108100    301.77541    752.17053     25756.97    27083.943    -38159.54 
  108200    285.62442    732.82894    25860.347    27137.216   -38527.445 
  108300    291.00639     738.9785    25881.339    27174.608   -38510.371 
  108400    289.21827    758.98742    25918.406    27228.279   -38318.743 
  108500    295.50489    766.43052    25951.148    27280.438   -38300.044 
  108600    312.44311    750.65115     25983.13    27328.903   -38551.852 
  108700    297.65293    732.86554    26070.156    27369.972   -38780.524 
  108800    295.83059    756.67469    26095.438    27415.593   -38543.506 
  108900    295.48272    781.05597    26121.895    27465.768   -38378.207 
  109000    296.86812    756.56496    26193.915    27515.936   -38770.246 
  109100    299.62442    744.65694    26258.129    27573.492   -38843.546 
  109200    308.34146    767.39651    26261.017    27615.723   -38655.276 
  109300     294.9961    754.68366    26349.345    27665.919   -38912.947 
  109400    304.12735    758.33065    26375.512    27713.125   -38882.592 
  109500    287.33614    767.75247    26445.898    27760.951   -38794.441 
  109600    309.19569    758.99227    26462.434    27810.363   -38950.794 
  109700    292.86662    741.72735    26555.738    27855.299   -39136.186 
  109800    292.22183    747.14855    26611.041    27914.795   -39122.759 
  109900    289.83091    758.49872    26650.245    27960.796   -39048.208 
  110000    310.82002    765.09959    26651.474    28008.604    -38979.86 
  110100    292.78071    742.19771    26753.323    28053.191   -39344.645 
  110200    301.91922     742.6433    26793.335    28111.055   -39378.717 
  110300    305.74731    767.15487    26803.893    28153.417   -39155.813 
  110400    296.92457    762.93308    26880.055    28208.552   -39276.088 
  110500    296.48397    757.21199    26933.527    28255.463   -39406.792 
  110600    305.99846     762.6935    26956.158    28301.699   -39377.245 
  110700    299.83017    762.04884    27022.104     28355.25   -39486.096 
  110800    301.70269     765.1616     27065.74    28405.566    -39489.59 
  110900    296.77049    767.48327    27117.336    28450.089   -39563.932 
  111000     311.6463     769.4264    27140.386    28503.417   -39557.982 
  111100    303.28346    774.20202     27199.83    28551.707   -39582.237 
  111200    304.28019    763.77425    27254.157    28597.505   -39772.531 
  111300    296.76386    772.72893    27315.162    28653.148   -39759.125 
  111400    294.08104    792.57393    27348.363    28701.084   -39600.852 
  111500    293.21429     780.4516    27414.385    28753.333   -39806.089 
  111600    311.67408    759.70376    27449.354    28802.715     -40085.3 
  111700    313.65375    772.11127    27488.286    28857.826   -39913.881 
  111800    301.33074    798.05513    27533.482    28905.494   -39695.264 
  111900    294.05827    784.86115    27608.849    28953.814   -39942.275 
  112000    295.79079    759.10256    27680.685    29003.191   -40268.378 
  112100    289.68618    774.04521    27727.571    29053.393   -40162.441 
  112200    303.61783    779.69304    27747.596    29105.602   -40098.082 
  112300    297.29859    773.57259    27817.363    29157.211   -40243.105 
  112400    298.58478    777.70138    27855.525    29201.952   -40233.179 
  112500    302.78906    778.20237    27893.739    29248.675   -40223.564 
  112600    303.40179    772.56302    27955.644    29306.108   -40360.106 
  112700    307.19333    770.95155    28001.315    29357.389   -40411.168 
  112800     294.5663    773.31217     28070.79    29405.173   -40460.086 
  112900    303.80599    796.22947    28084.045    29458.945    -40295.55 
  113000     296.4664    783.74706    28160.669    29509.107   -40433.541 
  113100    304.16808     758.1316    28220.467    29557.959   -40826.878 
  113200    303.49076    777.47825    28252.849    29608.397   -40644.443 
  113300    290.12385    805.24069    28300.131    29657.981   -40469.581 
  113400    304.51264    799.78991    28332.576    29712.383   -40601.894 
  113500    301.12324    787.49172    28398.315    29759.367   -40801.016 
  113600    303.08898     784.6022     28449.57    29811.477   -40934.205 
  113700    288.74129    806.65941    28501.086    29857.722   -40773.891 
  113800    295.72281    818.08023    28533.931    29915.286   -40663.617 
  113900    297.27005    789.49348    28613.321    29969.036   -41074.171 
  114000    305.82254    798.53216    28627.911    30008.955   -40992.884 
  114100    287.25332    809.14061    28707.094    30063.377   -40908.071 
  114200    300.87136    792.83563     28755.56    30121.477   -41184.154 
  114300    295.25539    806.16822    28805.747    30174.299   -41087.898 
  114400    311.86191    811.34049    28816.279    30221.635   -40987.274 
  114500    308.60388    795.27162    28885.219      30268.3   -41209.314 
  114600    303.61411    788.42302    28957.582     30324.31   -41330.661 
  114700    296.11108    797.14876    29016.525    30377.687   -41293.851 
  114800    305.87357    803.60431    29043.158    30429.371   -41277.207 
  114900    295.14181    804.48253    29106.025    30472.676   -41327.028 
  115000    298.43655    788.57575     29165.78    30522.799    -41548.77 
  115100    298.62847    795.25038    29221.062    30585.121   -41494.752 
  115200    296.14227    805.36467    29262.992     30632.43   -41495.601 
  115300    297.42177    799.34898    29323.644    30689.504   -41570.149 
  115400     317.1542    811.40125    29325.006    30740.503   -41548.418 
  115500    285.35403    806.78503    29438.417    30788.727    -41725.37 
  115600    301.84626    797.55503    29465.401    30837.894   -41836.459 
  115700    306.98929    809.89874    29498.462    30893.095   -41701.701 
  115800    291.56593    828.91917    29558.295    30942.571   -41690.852 
  115900    289.69633    836.95055    29606.517    30995.263   -41692.925 
  116000    294.31329    809.27236    29678.961    31048.823   -41942.607 
  116100    294.70564    798.89463    29743.826    31104.058    -42172.13 
  116200    300.13711     824.8025     29753.75    31150.235   -41964.683 
  116300    298.90262    841.16991    29792.723    31203.224   -41833.922 
  116400     292.5174    825.87768    29874.436    31257.483    -42060.82 
  116500    306.56482     807.5604    29916.045    31307.531   -42281.793 
  116600    284.75415    815.37444    30007.795    31365.551    -42221.94 
  116700    309.31153    831.86073    29997.015    31418.033   -42053.677 
  116800    301.83129    828.69873    30065.373    31468.982   -42211.063 
  116900     296.2491     819.8953    30137.477    31521.649    -42362.57 
  117000    294.44646    830.38267    30183.299    31574.525   -42249.606 
  117100    293.75464    816.39666     30245.92    31621.842   -42487.161 
  117200    299.01116    798.39395    30313.515    31681.447   -42637.006 
  117300    301.61839    824.60484    30328.918    31728.027   -42413.695 
  117400    297.56112    837.65303    30372.833    31777.262   -42387.065 
  117500    304.12478    821.42719    30436.752    31837.457   -42587.132 
  117600    301.95658    807.74476    30504.732    31887.625    -42781.96 
  117700    305.52836    823.44218    30532.334    31937.727   -42711.565 
  117800    298.41349    858.94902     30566.61    31993.959   -42478.125 
  117900     308.0558    830.24435    30624.391    32041.401   -42751.293 
  118000     300.2714    811.12521    30713.535    32096.599   -43029.872 
  118100    306.88771    836.75649     30735.85    32157.147   -42826.529 
  118200    295.05071    849.77111    30796.206    32207.972   -42800.139 
  118300    311.22787    839.71032    30822.411    32254.929   -42897.589 
  118400    295.02997    844.31457    30903.133    32309.402   -42979.896 
  118500    287.61985    838.79613    30976.711    32363.348    -43133.54 
  118600    293.06012    846.67518    31018.507    32423.385   -43056.678 
  118700    303.84167    832.78207    31062.671    32474.192   -43200.836 
  118800    292.75275     832.7071    31137.443    32527.768   -43248.197 
  118900    298.98634    861.78138    31149.519    32580.791   -42975.986 
  119000    308.85017    841.03858    31206.305    32635.622   -43258.695 
  119100     301.8931    807.18003    31303.832    32686.039   -43630.788 
  119200    297.71108    827.46572    31341.918    32736.445   -43417.446 
  119300    311.38824     856.4144    31339.292     32788.82   -43244.627 
  119400    302.14273    845.94664    31429.054    32850.503   -43404.161 
  119500    299.77554    827.78168     31503.45    32902.226   -43619.649 
  119600    299.40981    821.37872     31562.22    32953.896   -43759.469 
  119700    292.25376    850.48189    31600.817    33007.966   -43502.994 
  119800    290.08059    847.27426    31662.939    33062.741    -43600.12 
  119900    295.45205    844.50068    31708.573    33115.832   -43752.591 
  120000    299.29498    855.84966    31746.192     33172.12   -43717.281 
  120100    299.06472    851.84018    31797.291    33218.771   -43820.011 
  120200    307.56473    840.77056    31854.389     33280.99   -43963.558 
  120300    291.49341    864.38843    31912.548    33332.155   -43835.044 
  120400    294.32285     868.9293    31960.361    33389.898   -43833.437 
  120500    297.25663    859.87058    32015.924    33441.991   -43956.411 
  120600    295.22311     845.9597    32086.934    33495.216   -44161.589 
  120700    294.61521    851.09322    32139.694    33551.952   -44137.793 
  120800    293.73519    865.60786    32181.856    33606.953   -43953.358 
  120900    309.13382    861.97163    32208.696    33659.487   -44108.335 
  121000     298.6504    845.87851    32299.617    33714.346   -44288.426 
  121100    303.87915    847.24205    32341.677    33767.729   -44318.158 
  121200    304.25858    844.79343    32398.609    33822.935   -44428.118 
  121300    320.70112    854.95849    32406.184    33871.994    -44311.45 
  121400    299.63431    872.82819    32487.349    33930.902   -44253.755 
  121500    309.02855    867.49959    32526.846    33982.964   -44379.206 
  121600    301.69842    841.19197    32621.797    34037.645   -44667.874 
  121700    313.70711     854.8106    32639.496    34091.837   -44650.166 
  121800     296.9556    881.23259    32705.953    34152.808   -44543.659 
  121900    312.58521    883.69163    32728.296     34207.38   -44486.603 
  122000     291.5715    865.63275    32833.642    34254.642   -44816.195 
  122100    304.31861     872.8085    32861.609    34314.064   -44795.727 
  122200    305.43583    888.15189    32899.236    34369.163   -44724.587 
  122300    305.08195    877.55919    32966.237    34424.897   -44806.156 
  122400    310.35803    883.74704    33007.758    34482.655    -44819.01 
  122500    295.60551    886.79292    33080.983    34530.827   -44841.476 
  122600    298.60462    876.99371    33142.912    34588.669   -44952.272 
  122700    309.98267    863.22321    33194.211     34647.87   -45102.884 
  122800    306.97919    862.62452    33257.255    34704.595   -45245.086 
  122900    293.93565    875.75251    33318.607     34754.23   -45047.165 
  123000    309.05494    889.35752    33329.014     34807.04   -44981.379 
  123100    294.75782    861.06491    33445.467    34867.968    -45331.23 
  123200    302.38473    848.69353    33499.514    34924.171   -45458.254 
  123300    291.52389    892.62903    33524.641    34972.546   -45176.936 
  123400    308.27192    898.30748    33548.244    35033.728   -45164.299 
  123500    301.42855    867.54062    33652.888    35094.571   -45551.331 
  123600    308.81191    870.12747    33686.828    35145.162   -45627.239 
  123700    299.70223    895.01752    33729.207    35195.078   -45412.636 
  123800    300.81218    894.37752     33791.33    35258.675   -45527.771 
  123900    307.37043    886.61772    33838.246    35310.324   -45621.604 
  124000     298.6541    906.86277    33893.285    35369.005   -45495.274 
  124100    292.06876    900.92896    33963.416     35420.66   -45647.512 
  124200    293.69733    885.69146    34032.357    35477.465   -45887.191 
  124300    297.50521    888.37508    34078.533    35533.578   -45897.019 
  124400    293.77469    905.80341    34127.655    35593.022   -45747.162 
  124500    305.66888     908.7714    34157.667    35648.658   -45685.849 
  124600     298.8647    884.40263    34255.247    35708.909   -46035.663 
  124700    301.57293    873.76481    34308.353    35756.535   -46137.834 
  124800    307.55827    893.81486    34335.398    35815.031   -45952.441 
  124900    303.43646    903.42103    34394.695    35876.083   -45959.796 
  125000     309.5129    886.71203    34451.155    35927.408   -46156.935 
  125100    293.80214    878.23358    34549.254    35987.103   -46275.937 
  125200     294.0777    892.24977    34587.651    36040.042   -46249.381 
  125300     289.9706    896.55918     34644.01    36092.887   -46243.253 
  125400    296.12302    890.71544    34699.256    36154.008   -46395.226 
  125500    288.38889    907.84771    34755.557     36212.71   -46350.064 
  125600    304.95147     908.8684    34778.952    36268.673   -46316.324 
  125700     291.5376    894.89988    34874.064    36324.266   -46616.667 
  125800    292.06936    907.99644     34916.55    36380.862    -46556.49 
  125900    314.03836     925.8091    34919.086    36443.056   -46384.918 
  126000    291.94817    918.54606    35020.109    36494.739   -46565.467 
  126100    302.07167    909.78608    35064.963    36550.116   -46681.886 
  126200    300.75379    900.07338     35136.66     36609.59   -46847.368 
  126300    298.39608    909.02869    35190.044    36667.439   -46798.638 
  126400    294.20813     917.4551    35239.854    36717.698   -46718.226 
  126500    313.63777    915.63229     35266.65     36779.68   -46793.897 
  126600    294.31898    917.99819    35359.135    36837.734   -46877.038 
  126700    294.91337    916.27684    35418.895    36896.904   -46930.658 
  126800    298.06446    898.67675    35482.914    36949.325   -47156.374 
  126900      299.587    906.31518    35529.326    37006.276   -47068.223 
  127000    307.62497    928.30561    35551.576    37065.826   -46975.928 
  127100    304.52846    922.55757    35625.926     37128.53   -47090.693 
  127200    304.27456    911.35772     35693.72    37184.641   -47215.578 
  127300    306.73924    915.45629    35741.644    37241.358    -47274.04 
  127400    303.53872    933.58445    35787.492    37299.238   -47224.966 
  127500    291.44868    936.77518    35862.008    37353.916   -47273.585 
  127600    305.49207    926.88708    35903.272    37412.042   -47416.254 
  127700    301.03629    926.25161    35973.183    37472.829   -47397.204 
  127800    297.37805    926.36227    36030.347    37523.137   -47532.788 
  127900    297.26779     923.2888    36094.777    37584.283   -47608.197 
  128000    295.15435     931.8514    36154.495    37648.538   -47486.873 
  128100    301.55794    928.67879    36195.895    37698.963   -47545.139 
  128200    301.82825    916.39833      36265.4    37756.702   -47722.553 
  128300     302.3619    908.27154    36330.862    37815.054   -47784.751 
  128400    302.16777     920.5444     36375.58    37871.675     -47792.7 
  128500    293.58276    927.65547     36440.98    37927.834   -47714.593 
  128600    308.00029    913.01395    36487.301    37986.975    -47903.58 
  128700    300.79988    931.63065    36544.939    38049.515   -47927.403 
  128800    298.70244    945.41447    36596.055     38110.42   -47850.203 
  128900    318.77692    919.84316    36633.847    38160.876    -48106.81 
  129000    308.06337    921.12419    36713.988    38221.892   -48224.129 
  129100     295.1241    953.03757    36768.842    38284.013    -47981.24 
  129200    300.14217    963.35344    36801.309    38336.355   -47972.202 
  129300    300.58243    942.03218     36884.14    38398.703   -48170.802 
  129400     312.4991    920.86935      36938.5    38454.598   -48431.189 
  129500    288.96244    941.24717     37023.04    38514.684   -48385.274 
  129600     300.0467    966.64494    37035.682    38573.837   -48109.203 
  129700    289.97048    940.77301    37141.905    38634.996   -48479.152 
  129800    293.64346    918.34079    37212.258    38689.912   -48653.352 
  129900    292.08793    940.42836    37251.918    38748.697   -48460.224 
  130000    294.85563    954.11767    37294.388    38810.128   -48421.283 
  130100    300.89382    926.39646    37365.824    38865.345   -48701.859 
  130200    294.69196    936.40266    37426.045    38923.758   -48733.439 
  130300    302.99868    959.71309    37443.436    38980.282   -48565.107 
  130400    300.05872    953.72472    37520.176    39045.434   -48669.472 
  130500    284.45482    937.48922    37622.562    39101.863   -49008.014 
  130600    304.76798    951.88727      37628.2    39160.591   -48859.552 
  130700    288.30385    965.01701    37701.728    39215.888   -48791.351 
  130800    289.39079    968.19233    37763.026    39282.431    -48944.65 
  130900    299.40661    951.24924    37817.721    39339.261   -49022.453 
  131000     306.2926    960.28034    37855.549    39399.237   -49014.582 
  131100    297.33217    983.94168    37907.692    39457.973   -48969.477 
  131200    315.61893    959.32535    37955.627    39516.124   -49086.272 
  131300    297.10595    947.80282    38064.247    39577.958   -49361.822 
  131400     307.1385    979.76494    38074.644    39639.427   -49093.529 
  131500    297.12351      963.098    38161.884    39690.924   -49213.114 
  131600    300.12697    935.60725    38248.514    39755.785   -49521.708 
  131700    285.69488    951.51928    38320.942    39816.635   -49409.828 
  131800    301.50148    965.46377    38339.885     39879.63   -49299.399 
  131900    300.44237    960.90645    38403.167    39936.338    -49464.64 
  132000    291.49942    955.14859    38483.032    39993.411   -49619.804 
  132100    293.41847    954.01037    38541.127    40054.022   -49705.353 
  132200    305.36497    976.85717    38557.731    40116.228   -49518.891 
  132300     297.7152    963.48778    38645.545    40176.102   -49731.951 
  132400    297.04835    966.77374    38701.587     40234.16   -49801.153 
  132500    285.53915    992.03739    38755.841    40291.755   -49622.167 
  132600    308.66678    979.65897    38791.245    40358.834   -49787.029 
  132700    317.81826    959.64713    38849.272    40414.279   -49986.103 
  132800    302.17749    969.16001    38925.736    40470.465   -49956.462 
  132900    300.65178    982.56402    38981.952    40537.179   -49886.554 
  133000    301.81423    986.19117    39038.165    40599.233   -49877.933 
  133100    300.26448     961.1186    39117.918    40650.962   -50201.263 
  133200    295.12836    959.37964    39191.147    40712.669   -50248.833 
  133300    303.63993    975.35412    39223.945    40777.654   -50112.688 
  133400     285.4625    980.27478    39311.687    40835.693   -50215.048 
  133500    289.80216    979.52541    39363.804    40895.327   -50262.386 
  133600    299.06408    980.81708    39400.695    40951.151   -50286.376 
  133700    304.18968    976.44298    39464.057    41019.901   -50438.379 
  133800    301.32639    974.24563    39528.933    41077.127   -50467.918 
  133900    299.41329    966.17091     39601.47    41137.944   -50533.101 
  134000    300.39115    1002.0043    39618.503    41192.674   -50378.672 
  134100    317.06279    999.33598    39656.746    41260.003   -50378.389 
  134200    304.32304    976.07598    39767.257    41322.989   -50726.816 
  134300    302.65562    979.14489    39820.663    41376.287   -50790.779 
  134400    301.53041    992.00656    39871.168    41437.511   -50691.607 
  134500    297.46598    993.03439    39947.234    41506.863   -50737.803 
  134600    300.60732    1005.1962    39987.843    41565.617   -50722.233 
  134700     314.8782    982.96315    40042.558    41625.281   -50871.122 
  134800    297.43167    975.15691    40143.975    41685.661   -51002.858 
  134900    290.05455    988.07242    40207.119    41747.669   -50994.572 
  135000    295.16062    991.15382    40261.438    41814.795   -50966.089 
  135100    297.16285    988.64614    40315.242    41869.905   -51090.628 
  135200    293.48474    992.38289    40375.673    41927.067   -51168.039 
  135300    305.01701    1001.5102    40414.746    41997.233   -51108.512 
  135400    299.49233    1006.2173    40475.443    42052.114   -51188.959 
  135500    302.11554    995.62555    40544.544    42115.621    -51359.19 
  135600    288.40693    1005.4139    40619.324    42174.077    -51310.84 
  135700    297.21469    1015.6127    40656.969    42238.697   -51225.369 
  135800    290.60153    1005.4585    40742.191    42301.169   -51420.087 
  135900    305.89298    990.84313    40782.995    42356.484    -51541.19 
  136000    286.21399    992.39786    40878.738    42416.298   -51643.022 
  136100    299.13131    1007.1775    40909.396     42486.34   -51477.529 
  136200    299.96555    1017.8903    40958.834     42548.08    -51493.62 
  136300    305.44424     992.0703     41034.93    42608.791   -51776.235 
  136400     294.8454    1008.6893    41096.026    42666.318   -51685.474 
  136500    302.90633    1019.7312    41134.326    42731.014   -51617.634 
  136600    300.80871    990.44656    41227.405    42790.813   -51985.702 
  136700    294.15795    995.99322    41300.337    42856.624     -51983.3 
  136800    302.27159    1033.4432    41308.389     42917.58   -51728.334 
  136900    299.78573    1035.4851    41375.373    42981.872   -51797.702 
  137000    305.93137    1005.9365    41452.863    43041.519   -52095.355 
  137100    297.62002    1004.3666    41532.191    43103.446   -52215.738 
  137200    305.17307    1033.5743      41547.4    43162.249    -51974.46 
  137300    298.64678    1026.8577    41631.618     43227.32   -52048.817 
  137400     299.8113    1003.0759    41715.835    43289.973   -52324.219 
  137500    308.65074    1010.2479    41752.659    43350.805   -52247.851 
  137600    290.13874     1025.912    41832.267    43410.818    -52264.67 
  137700    295.26244    1001.4657     41918.87    43482.734   -52502.387 
  137800    311.72251    994.02332    41956.698    43544.471   -52563.936 
  137900    297.73619    1023.3066    42014.962    43605.378   -52407.704 
  138000     302.3649    1047.5279    42045.759    43669.213    -52255.64 
  138100    294.28385    1021.9558      42141.3    43723.789   -52626.052 
  138200    306.05473    1016.2088    42189.751    43788.914   -52705.614 
  138300    307.90904    1027.9506    42241.389    43855.825   -52645.054 
  138400    302.77553    1037.5298    42304.546    43918.784   -52651.819 
  138500    295.84397    1017.1484    42401.518    43982.172   -52909.377 
  138600    301.81705    1033.8494    42431.304    44040.036    -52765.39 
  138700    296.42432    1050.9303    42493.036    44108.577   -52712.342 
  138800    297.61588    1016.0016    42584.201    44167.083   -53023.007 
  138900    306.50826    1010.2944    42635.958     44230.07   -53154.132 
  139000    292.52829    1041.9105    42692.435    44291.535   -52907.608 
  139100    310.12089    1050.4068    42715.851    44356.957   -52856.682 
  139200    295.23792    1023.0602    42834.777    44420.188   -53171.274 
  139300    292.06224    1013.9118    42915.671    44485.885   -53348.387 
  139400    300.96642    1044.1374    42935.758    44553.158   -53190.401 
  139500    309.29825     1038.115    42985.418    44612.665   -53250.332 
  139600    297.12721    1029.2506     43077.16     44672.36   -53403.273 
  139700    303.33788    1056.7757    43105.487    44740.042   -53290.534 
  139800    290.33091    1058.0638    43194.904    44805.972   -53274.869 
  139900    299.94381    1037.3372     43253.93    44862.582   -53529.666 
  140000    304.56523    1020.5654    43328.294    44928.976   -53704.006 
  140100    303.56268     1050.555    43362.637      44991.4    -53486.26 
  140200    294.40777    1068.8494    43429.359    45058.977   -53441.033 
  140300    299.56186    1037.2364    43512.351    45120.175   -53765.096 
  140400    303.16917    1019.6324    43588.699    45185.789   -53905.061 
  140500    302.33662    1056.8402    43616.814    45249.526    -53707.33 
  140600    301.91038    1048.0557    43690.148    45313.264   -53756.215 
  140700    305.30705    1038.6566    43756.611    45376.797    -53922.47 
  140800    311.92315    1051.9179    43792.133    45438.182   -53932.341 
  140900    301.32849     1063.884    43864.856    45502.692   -53838.226 
  141000    297.73063    1048.4901    43952.289    45567.878   -54070.785 
  141100    309.07438    1036.8935    44005.619    45631.218    -54269.35 
  141200    307.96441    1063.2324    44046.974    45696.797   -54056.358 
  141300    302.51985    1079.8504    44104.043    45760.114   -54059.657 
  141400    295.07715    1052.5705    44211.806    45826.421   -54304.082 
  141500     297.4218      1048.04     44274.52    45889.071   -54388.537 
  141600    299.36024    1058.0168    44321.666    45949.885   -54315.767 
  141700    301.48197    1061.9009    44382.746    46018.891   -54330.961 
  141800    279.12742    1052.8268    44499.321    46083.812   -54528.866 
  141900     303.9257     1053.186    44510.625     46142.71   -54568.842 
  142000    307.28749    1068.5857    44557.647    46211.535   -54445.503 
  142100    303.14047    1069.5776    44631.062    46278.043   -54563.577 
  142200    299.84317    1053.5794    44717.836    46342.538    -54775.83 
  142300    293.04608    1056.8696    44787.445     46402.49   -54830.612 
  142400    311.05238    1076.7754    44801.095    46470.343   -54644.647 
  142500    296.83152    1085.6091    44885.773    46536.768   -54691.562 
  142600    306.71065    1063.0594    44954.151    46601.413    -54873.65 
  142700    308.32844    1060.3638    45016.901    46664.549   -54902.052 
  142800    295.49711    1054.6757    45114.256    46731.776   -55052.169 
  142900    303.27368    1057.5347    45159.277    46794.468   -55037.663 
  143000    298.07611    1071.7287    45221.194     46860.68   -55017.981 
  143100    292.32914    1070.9904    45293.795    46921.595   -55115.535 
  143200    308.65638    1078.7116    45321.007    46987.628   -55013.568 
  143300    295.41132    1075.5913    45421.605    47059.877   -55257.696 
  143400    309.64431     1059.179    45474.237    47123.207   -55424.356 
  143500    302.21005    1076.0975    45536.934    47188.662   -55329.533 
  143600    304.51009    1092.7687    45577.879    47250.659   -55287.948 
  143700    304.02807    1090.4759    45644.978    47314.547   -55317.438 
  143800    303.57611    1077.9694     45725.04    47381.242   -55521.357 
  143900    290.04969    1076.2528    45819.715    47448.436   -55634.744 
  144000    296.90556    1079.6801    45865.939    47511.146   -55570.452 
  144100    306.00668    1076.7558    45915.742     47575.36   -55635.395 
  144200    300.30585    1082.5873    45984.343    47638.934   -55666.746 
  144300    290.54681    1093.9985    46062.025    47709.439   -55645.764 
  144400    304.99064     1093.633    46102.291    47776.852   -55732.889 
  144500    294.41401    1072.9829    46212.745     47846.51   -55993.241 
  144600    312.23915    1073.1559    46239.868    47907.757   -55994.001 
  144700    303.58244    1103.1137    46292.687    47974.046   -55815.024 
  144800    299.65842    1115.3621    46356.562    48042.695   -55827.056 
  144900    297.79792    1088.9636    46449.558    48105.749   -56079.318 
  145000    310.94496    1090.2838    46491.473    48174.025   -56129.069 
  145100    298.65499    1089.5686    46573.372      48231.8   -56139.352 
  145200    293.45395    1089.6116    46655.717    48304.282    -56247.07 
  145300    301.93379    1089.1549    46710.112    48374.372   -56292.075 
  145400    288.25205    1094.0001    46792.857    48435.901   -56249.705 
  145500    292.99825     1099.302    46851.263     48508.65   -56219.463 
  145600    298.77494     1079.454     46920.13    48568.672   -56538.457 
  145700    302.20856    1079.2775     46980.06    48634.965   -56591.139 
  145800    312.60988    1117.0061     46989.91    48702.356    -56359.07 
  145900    301.24053    1115.1497    47075.984    48764.918    -56507.42 
  146000    295.94526    1106.7509    47164.057    48834.506   -56644.241 
  146100    292.57056    1120.1781    47222.628    48900.077   -56616.964 
  146200     304.1357     1115.322    47270.169     48964.79   -56693.898 
  146300    301.51029    1102.7891     47360.28    49037.367   -56811.864 
  146400     307.0188    1096.3808    47417.238    49098.409   -56896.387 
  146500    288.51862    1115.9504    47499.087     49164.59   -56828.195 
  146600    298.67676    1123.8758    47544.151    49236.928   -56743.514 
  146700    308.05588    1093.2384    47623.384    49303.388   -57081.349 
  146800    297.78277    1094.6093    47706.688    49368.495   -57172.029 
  146900    300.58604    1120.5358    47744.214    49437.287   -56980.282 
  147000    291.58956     1120.821    47827.072    49503.295   -57113.283 
  147100    306.76039    1118.1551    47871.512    49573.966   -57198.992 
  147200    302.26442    1133.4253    47923.062    49632.221   -57114.506 
  147300    296.55968    1132.0129    48009.407    49706.289   -57229.587 
  147400     286.6223    1118.8453    48108.223    49773.008   -57369.622 
  147500    296.30773    1100.8524    48170.276    49835.517   -57564.974 
  147600    306.97391    1122.6203    48196.469    49903.794    -57397.47 
  147700    313.16609    1138.7358    48242.051    49977.286   -57295.946 
  147800    303.14246    1109.6388    48355.792    50042.837   -57611.738 
  147900    287.14834    1114.0374    48443.562    50104.542   -57652.397 
  148000    303.03739    1130.0059    48467.414    50174.627   -57598.155 
  148100    289.98283    1124.1834    48568.389    50244.913   -57746.381 
  148200    300.99062    1116.8817    48620.145    50310.335     -57874.6 
  148300    299.89902     1145.558    48663.485    50380.272   -57723.311 
  148400    308.83926    1160.1732     48697.95    50446.381   -57600.599 
  148500     299.6719    1137.2689    48805.518    50513.584   -57949.902 
  148600    295.19415    1108.7168    48904.067    50575.051   -58155.514 
  148700     303.1248    1129.4809    48938.243    50645.097   -58013.695 
  148800    295.13885    1151.4596    49009.595    50723.216   -57962.962 
  148900    302.27751    1128.5225    49081.601    50785.883   -58130.935 
  149000    302.49883    1134.0157    49144.699    50854.895   -58222.117 
  149100    295.11256     1152.703    49210.187    50925.002   -58104.714 
  149200    300.72731    1134.6778    49281.946     50989.43   -58252.364 
  149300    304.67438    1111.4679    49367.168    51058.961   -58590.407 
  149400     307.4691     1135.988    49404.343    51125.979   -58361.269 
  149500     286.3327    1166.4297    49480.283    51192.101   -58260.225 
  149600    298.38699    1150.8916    49549.973    51269.213   -58475.102 
  149700    286.91579    1130.6877    49658.375    51335.562   -58685.295 
  149800    300.15307    1145.1082    49683.405    51400.226   -58664.032 
  149900    299.68742    1162.1199    49735.609    51468.555   -58493.363 
  150000    299.41827    1129.0104    49836.197    51535.521   -58820.084 
  150100    296.25099    1134.6548    49903.629    51602.564   -58836.826 
  150200    318.98851    1168.6488    49895.883    51672.121   -58527.659 
  150300    305.36462    1153.1615    50004.064    51738.865   -58799.802 
  150400    295.32119    1129.1541    50121.702    51813.366   -59099.916 
  150500      293.603    1136.5463    50183.919    51879.702   -59070.512 
  150600    297.00078    1172.5935    50210.783    51949.086   -58909.402 
  150700    290.58462    1159.1033    50305.166    52017.756   -59045.563 
  150800    303.88907    1140.3195    50370.694    52089.843   -59236.588 
  150900    322.22481    1171.9044    50372.641    52158.299   -59032.641 
  151000    288.14164    1170.1796    50503.732    52222.746   -59091.722 
  151100    303.58345    1131.6126    50578.891     52288.75   -59460.753 
  151200    311.30576    1137.0795    50630.218    52360.253   -59427.218 
  151300    294.58291    1169.7142    50701.152    52431.969   -59202.632 
  151400    307.72119    1165.3043    50746.352    52497.784   -59328.633 
  151500     287.0673    1138.9602    50885.874    52571.622   -59612.209 
  151600    303.92668    1152.8495    50905.447    52637.197   -59577.939 
  151700    300.69025    1176.1301    50964.147    52713.013     -59518.3 
  151800     297.7063    1159.8747    51050.231    52777.158   -59705.751 
  151900    303.82516    1160.9872    51110.149    52849.844   -59789.943 
  152000    314.06413    1185.1678    51129.347    52912.725   -59573.248 
  152100    296.16828    1193.0352     51228.56    52985.718   -59624.995 
  152200    309.41323    1143.7188    51319.136    53052.206   -60038.867 
  152300    297.15174    1147.9391    51409.546    53123.481   -60032.118 
  152400      310.026    1177.8859    51426.027    53194.431   -59831.337 
  152500    293.92904    1163.9162    51542.449    53266.223   -60030.587 
  152600     307.8903    1156.6763     51589.64    53332.767   -60109.372 
  152700    296.35328    1173.9117    51664.949    53403.336   -60115.561 
  152800    300.05872    1178.5746    51722.979    53473.086   -60076.437 
  152900     316.6017    1164.2381    51777.438    53544.719   -60350.469 
  153000    302.67514    1158.8226     51877.12    53612.459   -60437.864 
  153100    307.39271    1193.9262    51902.371      53681.8    -60119.25 
  153200    294.25455    1188.2681    52010.279    53759.024   -60344.182 
  153300    315.36666    1160.6802    52066.529      53827.9   -60501.625 
  153400    293.38455    1174.3677    52159.014    53892.202   -60532.054 
  153500    300.44824    1193.4049     52201.92      53967.6   -60380.102 
  153600     298.7051    1165.4948    52301.894    54036.344   -60659.728 
  153700    297.38745    1169.7889    52367.371    54103.605   -60760.478 
  153800    297.63773    1193.4137    52415.683    54176.019   -60606.384 
  153900    309.61573    1202.2794     52459.64    54251.656   -60663.135 
  154000    306.92042    1183.0886    52551.387    54319.079   -60906.155 
  154100    305.82488    1180.1118    52624.679    54387.307   -60922.023 
  154200    294.43478    1205.2905    52694.174    54460.285   -60825.901 
  154300    301.11821    1176.7598    52777.651    54527.962   -61031.063 
  154400    305.98597    1167.5526      52849.9    54600.275    -61146.58 
  154500     303.7229    1200.3555    52891.645    54670.513   -60972.276 
  154600    301.85463    1202.6408    52957.499    54735.094   -60975.475 
  154700    299.04821    1184.5694    53058.426    54812.604   -61235.012 
  154800    299.82167    1180.7491    53128.914    54880.745   -61361.016 
  154900    305.58478    1210.1632    53156.777    54948.999   -61167.592 
  155000    299.87684    1209.2127    53241.988    55022.387   -61271.404 
  155100    300.21836    1186.6345    53337.354    55095.825   -61494.723 
  155200    308.53596    1197.5269     53382.75    55167.957   -61389.569 
  155300     304.8945    1206.3745    53456.435    55243.554   -61446.337 
  155400    302.05074    1192.2794    53541.779    55309.386   -61601.166 
  155500    297.59192    1170.6268    53647.214    55384.676   -61802.241 
  155600    307.25043    1194.7528    53664.907    55444.892   -61601.026 
  155700    300.88547    1201.3569    53742.386     55516.85   -61622.392 
  155800    297.37032    1190.8487    53841.027    55598.288    -61872.45 
  155900    296.84334    1200.6743    53900.488    55666.571   -61813.149 
  156000    304.44062    1215.4911    53940.158    55735.528   -61808.788 
  156100    302.08783    1213.9088    54021.996    55811.303   -61907.143 
  156200    306.70226    1201.7223    54093.413    55879.323   -62038.604 
  156300    293.28657    1215.5678    54177.321    55951.523   -62046.377 
  156400    297.70769     1217.957    54237.584    56022.597   -61981.932 
  156500    299.18109    1208.8804     54316.11    56094.852   -62178.218 
  156600    306.25774    1209.2295    54372.983    56165.553   -62213.091 
  156700     301.3632    1211.9266    54450.041    56235.986   -62179.647 
  156800    283.29103    1220.4465    54548.897    56308.939   -62322.987 
  156900    300.11837    1221.5409    54589.004    56382.191   -62372.996 
  157000    298.54208    1205.0473    54675.061    56448.752   -62539.979 
  157100    293.57371    1224.5696    54746.043    56529.794   -62458.388 
  157200    299.17157    1232.1886    54796.281    56598.313   -62381.464 
  157300    297.73097    1206.5529    54892.123    56665.775   -62694.044 
  157400    295.08243    1215.6984    54961.104    56738.857   -62637.606 
  157500    306.61275    1221.8996    55012.145    56818.061   -62648.175 
  157600    304.72515    1214.5597    55090.181    56885.162   -62738.859 
  157700     308.8308    1211.7727     55155.05    56955.065   -62832.981 
  157800    306.98059    1216.0465    55227.963    57028.727   -62905.464 
  157900    308.17999    1247.8214    55273.271    57108.094   -62715.697 
  158000    292.19889    1231.6467    55387.615    57175.824   -62949.772 
  158100    311.92133    1211.5092    55441.717    57247.354   -63160.221 
  158200    293.51453     1235.467    55524.281    57318.816   -63054.846 
  158300    304.36707    1245.9367    55564.764     57390.44   -63039.312 
  158400    304.00959    1231.4813    55652.792    57463.332    -63213.91 
  158500    297.67546    1224.8785    55744.743    57536.615    -63285.79 
  158600     290.1334    1249.2169    55813.614    57615.459    -63151.25 
  158700    304.08486    1241.3267    55859.101     57679.63   -63280.935 
  158800    304.04716    1219.1242    55951.099    57749.353   -63521.065 
  158900    300.35693    1231.8832    56021.127    57825.111   -63499.767 
  159000    311.81433    1265.6296     56039.91    57899.464   -63300.945 
  159100    299.04617     1245.825    56157.872    57973.301   -63568.549 
  159200    287.91036    1220.9205    56276.395    58045.709   -63786.162 
  159300    288.16189    1265.7821    56306.716    58121.371   -63493.228 
  159400    302.63816    1248.5839    56373.167    58198.198   -63666.244 
  159500    303.07276     1218.586    56472.795    58268.655   -63968.481 
  159600    301.14388    1230.8935    56536.735    58341.228   -63934.558 
  159700    297.43417    1256.6679    56590.725    58413.927   -63719.994 
  159800    316.24384    1250.1796    56633.716    58486.257   -63827.263 
  159900    304.76775    1221.1186    56756.257    58557.878   -64197.034 
  160000    304.44929    1258.9551    56799.336    58638.188   -63992.729 
  160100    296.84227    1272.2519    56869.286    58706.944   -63959.151 
  160200    295.19518    1238.9528    56974.518     58775.74   -64298.118 
  160300    304.84119    1246.7951    57022.023     58849.46   -64281.649 
  160400    294.71667    1290.1046    57073.934    58925.396   -64050.478 
  160500    293.52153    1271.7557    57171.522    59002.359   -64213.044 
  160600    297.70157    1231.7866    57278.886    59077.716   -64609.634 
  160700    311.19884    1256.5589    57300.221    59149.532   -64399.762 
  160800    301.57552    1273.2651    57369.227    59216.915   -64322.497 
  160900    304.75406    1252.3453    57461.958    59294.779   -64629.426 
  161000    309.31649    1242.3376    57540.008    59371.512   -64698.795 
  161100    294.28142    1297.2251    57591.368    59449.122   -64485.717 
  161200    302.08408    1280.2976     57661.21    59516.899   -64589.367 
  161300    304.45918    1227.8301    57785.851    59593.596    -64989.25 
  161400    289.56013    1263.7886    57854.676        59670   -64832.984 
  161500    292.68319    1275.0751    57910.038    59742.598   -64710.105 
  161600    300.70521    1249.7261    57994.667    59817.158   -65026.265 
  161700    301.77675    1242.3105    58070.604     59887.72   -65120.809 
  161800    305.06039    1279.9193    58103.359    59964.338   -64879.076 
  161900     297.7211    1301.5827    58166.767    60035.431   -64867.394 
  162000    302.63755    1241.1472    58295.719    60113.311   -65370.063 
  162100     307.8577    1270.2857    58327.184    60183.858   -65279.775 
  162200    296.64487    1306.0288    58389.014    60260.074   -64989.871 
  162300     299.9081    1271.8198    58493.088    60336.154   -65310.929 
  162400    296.10206    1267.0733    58581.157    60412.227   -65501.596 
  162500      303.805    1288.6823    58617.732    60485.084   -65302.445 
  162600    301.42452    1298.4679    58690.326    60562.928    -65305.27 
  162700    308.45915    1259.9994    58786.811    60634.345   -65696.012 
  162800    308.23547    1262.3585    58861.001    60710.467   -65711.106 
  162900    293.92915    1320.0775    58907.643    60787.578   -65389.651 
  163000    294.42742    1285.7364    59011.095    60857.638   -65640.248 
  163100    299.68367    1261.0747    59102.861    60934.755   -65922.058 
  163200    300.72395    1289.9727    59142.986    61005.759   -65711.717 
  163300    298.01783    1290.4209    59225.925    61083.991   -65708.275 
  163400      285.926    1257.4302    59359.695    61161.739   -66174.955 
  163500    297.19079      1257.44    59411.578    61235.088   -66098.641 
  163600    300.14641     1313.936    59427.234     61312.87    -65827.69 
  163700    314.43244    1302.9731    59480.883    61382.768    -65966.56 
  163800    296.13443    1262.9664     59637.15    61464.175   -66342.588 
  163900    293.99921    1309.9699     59669.48    61539.442   -66108.052 
  164000    305.72981    1320.2584    59709.928    61612.521   -65950.011 
  164100    307.16451    1260.2398    59838.868    61684.176   -66541.318 
  164200    303.84792    1266.5137    59917.872    61763.136   -66541.997 
  164300    288.89472    1317.9679    59968.982    61837.218   -66175.244 
  164400    294.49956    1309.5099    60043.336     61913.79   -66410.626 
  164500    294.89991    1266.6131    60160.104    61988.424   -66743.497 
  164600    302.71933    1310.6528    60175.399    62062.652   -66520.881 
  164700    292.97394    1347.6256    60233.028    62138.693   -66298.521 
  164800    295.49625    1276.4266    60372.554    62211.824   -66908.179 
  164900    299.31382    1280.6864    60439.965    62290.766   -66979.477 
  165000    292.05927    1329.9441    60480.506    62366.747   -66555.168 
  165100    302.66075    1310.8152    60553.847    62441.151   -66716.925 
  165200    292.18332    1265.1761    60695.241     62516.95   -67219.961 
  165300    300.30687    1290.3191    60736.691    62599.016   -66973.801 
  165400    308.90887    1341.0798     60746.16     62675.63   -66702.793 
  165500    310.01792    1285.2934    60874.448    62750.244   -67129.079 
  165600    302.64312    1269.6513    60974.222     62820.33   -67411.844 
  165700    306.25135    1344.6426    60976.528    62904.499    -66967.63 
  165800    297.37479    1347.7121    61065.747     62979.88   -67000.631 
  165900    302.63784    1293.1929    61185.444    63055.083   -67626.923 
  166000    294.29847    1308.9793    61260.956    63130.497   -67396.691 
  166100    298.78196    1349.8185    61290.401    63209.321   -67154.268 
  166200    307.45359    1312.6347    61387.456    63285.709   -67463.619 
  166300    307.33083    1283.6645    61491.824    63360.873   -67773.782 
  166400    294.13854    1356.0085    61524.573    63440.839   -67383.614 
  166500    294.71677    1348.9633    61603.488    63513.809     -67393.2 
  166600    309.48391    1286.3518    61717.016    63592.853   -68040.224 
  166700    290.35724     1314.856    61795.852    63663.762   -67849.306 
  166800    305.59596    1364.9299    61795.967    63742.977   -67489.149 
  166900     293.2752    1317.2952    61943.325    63819.233   -67955.344 
  167000    301.57362    1286.6915    62039.612    63900.722   -68161.018 
  167100    305.62269    1335.6105     62052.09    63969.832   -67848.762 
  167200    307.24728    1361.6443    62100.114    64046.984   -67718.052 
  167300    309.06525    1299.5194    62238.779    64126.987   -68293.994 
  167400    310.62315    1324.4438    62283.477    64199.576   -68254.908 
  167500    292.94371    1382.1317    62335.647     64275.76   -67889.171 
  167600    299.56285    1326.3737    62465.066    64362.028   -68335.252 
  167700    309.37665    1295.8948    62548.648    64433.825   -68555.677 
  167800    298.66678    1334.5569    62605.577    64509.016   -68220.178 
  167900     290.7603    1361.8934    62674.024     64589.74   -68203.938 
  168000    297.30405    1305.2353    62791.999    64663.521   -68631.401 
  168100    295.47764    1320.5992    62863.468    64746.874   -68712.857 
  168200    294.80684    1383.4156    62874.559    64819.504   -68316.117 
  168300    297.43768    1342.3043    62992.633    64901.478   -68694.498 
  168400    303.37794    1314.5031    63083.904    64976.262   -69004.626 
  168500    287.50711    1378.0773    63127.845    65053.548   -68568.524 
  168600     306.2398    1365.0375    63182.307    65130.651   -68593.037 
  168700    303.14371    1309.4038    63327.807     65214.62   -68991.791 
  168800    297.66173    1309.8385    63415.531    65292.337   -69089.365 
  168900    296.26272    1356.9341    63443.148    65364.385   -68769.012 
  169000    302.05491    1340.4236    63529.041      65444.8    -69027.57 
  169100    298.31424    1315.4937    63643.938    65527.643   -69421.244 
  169200    307.12816    1377.2972    63643.679    65605.975    -69027.43 
  169300    309.70307    1390.4862    63697.066    65677.455   -68924.893 
  169400    299.75387    1341.0996    63846.475    65758.527   -69365.717 
  169500    307.94232    1352.9542    63892.635    65832.138   -69324.932 
  169600    316.27373     1375.722    63937.599    65915.739   -69148.029 
  169700     290.0033    1354.2016    64087.759    65994.341   -69459.341 
  169800    296.38894    1320.3102    64183.837    66068.691   -69757.658 
  169900    301.36431    1367.2158    64206.319    66147.555   -69471.986 
  170000    299.18398    1393.1255    64260.112    66223.105    -69321.35 
  170100    289.30896    1342.3024    64413.461    66306.821   -69774.891 
  170200    301.14468     1360.726    64448.113    66382.441    -69722.63 
  170300    299.23633    1372.8508    64518.384    66461.202   -69615.089 
  170400    292.59623    1354.8636    64626.722    66538.905   -69874.253 
  170500     300.0674    1325.7086    64726.513    66623.771   -70127.446 
  170600    301.99146    1363.7346    64758.036    66696.985    -69890.27 
  170700    305.63694    1404.8681    64792.922    66779.948   -69779.392 
  170800    305.68175    1355.9604    64918.953    66857.157   -70198.286 
  170900    310.81285    1365.0666    64978.363    66935.447   -70181.128 
  171000    308.06137    1399.0383    65027.819    67013.634   -70000.972 
  171100    315.94709    1363.8867    65123.407    67089.089   -70218.867 
  171200    292.51225     1341.114    65266.339    67164.612   -70501.145 
  171300    290.84131    1367.9422    65328.331     67250.25   -70291.008 
  171400    303.89043    1394.7707    65353.613    67327.215   -70206.236 
  171500    299.59671    1368.7644    65467.454    67406.871   -70532.116 
  171600    290.26901    1362.4095    65572.646    67487.941    -70605.83 
  171700    296.37558    1408.3298    65593.799    67566.647   -70380.131 
  171800     309.4896    1382.5109    65671.439    67643.446   -70590.371 
  171900    302.73013    1357.1448    65791.235    67725.001   -70826.233 
  172000    303.86512    1385.2838    65841.344    67805.411   -70622.382 
  172100    288.81178    1404.7171    65931.902     67886.73   -70572.136 
  172200    314.19085    1379.6134    65983.163    67961.228   -70825.839 
  172300    290.09648    1368.6844    66120.156    68041.398   -70994.248 
  172400    300.92921    1406.4872    66144.876    68124.554   -70802.184 
  172500    304.30235    1386.4721    66237.451    68203.539   -71046.964 
  172600     298.3158    1364.8861    66348.293    68281.392   -71249.048 
  172700    309.05154    1393.4058    66377.313    68359.381   -71090.297 
  172800    285.76728    1408.0413     66489.23    68441.583   -70993.976 
  172900    310.06485    1378.0928    66549.325     68518.01   -71295.762 
  173000    310.38884    1366.4252    66637.291    68594.926   -71414.107 
  173100    303.13817    1409.9706    66692.116    68679.485   -71193.936 
  173200    300.98861    1396.2094    66794.333    68763.846   -71427.654 
  173300    305.47794    1363.3995    66891.443    68836.697   -71679.112 
  173400    293.61983    1392.1597    66968.789    68920.218   -71566.381 
  173500    297.79935     1406.517    67024.501    68998.247    -71443.87 
  173600    303.27138    1381.4524    67125.735     69084.84   -71728.027 
  173700    307.46589    1370.5941    67206.872    69163.108   -71838.374 
  173800    298.97947    1418.3992    67255.342    69243.219   -71626.207 
  173900    302.99434     1411.113    67332.944    69321.182   -71717.396 
  174000    298.90202    1384.3615    67442.128     69395.82   -72043.201 
  174100    298.31659    1410.7069    67502.221    69481.142   -71951.841 
  174200    302.05961    1446.0449    67540.757    69562.147   -71737.386 
  174300    296.20434    1403.4049    67672.804    69640.401   -72007.811 
  174400    312.47501    1385.9409    67738.378    69719.501   -72166.175 
  174500    305.10981    1407.2212    67812.241    69800.617   -72103.374 
  174600    303.97929    1409.9121    67895.681    69884.594   -72104.553 
  174700     291.0686    1389.6344    68025.632    69969.676   -72485.682 
  174800    296.40055    1417.7623    68061.299    70043.627   -72358.809 
  174900    296.68622    1453.3227    68110.995    70129.427   -72178.041 
  175000    302.56497    1432.6409    68202.117    70211.065   -72334.895 
  175100    313.57577    1404.5181    68284.851    70286.648   -72534.113 
  175200    290.10522    1427.4569    68396.299     70376.33   -72472.878 
  175300    301.34194    1429.5538    68450.418    70453.949   -72436.966 
  175400     302.3714    1390.4485    68565.043     70531.43    -72845.17 
  175500    298.38196     1410.442    68633.594    70612.375   -72833.213 
  175600    299.36807    1441.0032    68687.877    70699.098   -72654.869 
  175700    297.13353    1428.5662    68785.509    70780.037   -72792.228 
  175800    295.21595     1401.787    68896.976    70861.072   -73023.206 
  175900    297.84367    1421.6395    68948.881    70937.834   -72906.089 
  176000    303.64941    1423.5938    69018.244     71020.21   -72840.423 
  176100    304.75949    1388.9031    69134.319    71103.709   -73242.701 
  176200    307.58463    1408.2079     69185.66    71179.736   -73248.748 
  176300    293.94638    1451.4205    69254.431    71265.743    -73035.99 
  176400    294.51584     1449.977    69331.997    71342.949   -73164.957 
  176500    309.91872    1403.5562    69432.325    71426.195   -73462.158 
  176600    290.72668    1444.4866    69507.278    71505.522   -73284.962 
  176700    299.31166     1430.353    69591.838    71592.301   -73287.588 
  176800    292.11009    1390.7315    69729.546    71676.671    -73692.45 
  176900    302.60802    1391.0787    69785.796    71753.264   -73767.113 
  177000     300.3833    1450.5014    69812.977     71835.63   -73435.284 
  177100    285.59754    1453.7113    69924.653    71922.352   -73576.176 
  177200    295.50564    1426.8977    70010.301     72000.06    -73875.46 
  177300    286.26234    1462.2254    70072.554    72080.035   -73671.904 
  177400    300.86213    1462.0644    70132.575    72167.703   -73606.868 
  177500    294.94199    1413.2188    70273.288    72248.294   -74005.224 
  177600    297.56103    1395.0048    70370.221    72332.001   -74175.963 
  177700    295.09822    1465.5594      70383.7    72411.344   -73745.193 
  177800    306.74123    1462.6784    70447.708    72494.648   -73962.988 
  177900    300.19921    1433.2726    70570.962    72576.036   -74283.712 
  178000     305.3905    1467.8116    70609.426    72658.927   -74071.429 
  178100    290.86393    1486.9682     70697.27    72738.257   -73911.095 
  178200    282.73818    1426.5453    70858.619    72823.706   -74454.206 
  178300    295.84951    1412.2659    70929.783    72905.565   -74527.988 
  178400    312.92838     1478.168    70914.225     72988.44   -74100.373 
  178500     293.4503    1447.8527    71062.825    73069.624   -74468.825 
  178600    298.71904    1417.9099    71164.717    73151.609   -74774.333 
  178700    306.09718    1475.5725    71176.312    73234.919   -74438.743 
  178800    299.52151    1495.3724    71250.531    73316.413   -74295.605 
  178900    290.24629    1438.4444    71408.583     73399.87   -74875.948 
  179000    295.82385    1434.6948    71485.837    73483.999   -74866.345 
  179100    283.92507     1485.814    71536.075    73562.692   -74617.805 
  179200    308.81865    1468.6104    71595.968    73652.797   -74819.069 
  179300       304.66    1425.2057    71728.459    73733.962   -75206.221 
  179400    300.76417    1494.2516    71748.916    73816.044   -74808.312 
  179500     291.3827    1497.4757    71850.003    73902.486   -74820.239 
  179600    299.13755    1439.3076    71969.465    73978.551   -75311.474 
  179700    305.34274    1444.7384    72039.383     74065.72   -75289.938 
  179800    295.78478    1497.5952    72086.017    74147.005   -74946.615 
  179900    306.63216    1455.0214    72188.548    74227.623   -75339.846 
  180000     301.4229    1411.9742    72324.791    74310.897   -75691.235 
  180100    281.44709     1497.334     72366.34    74399.757   -75273.404 
  180200    290.47204    1491.0669    72435.125    74479.465   -75379.327 
  180300    296.04425    1453.5088    72549.215     74566.61    -75750.97 
  180400     292.1175    1476.2489    72612.946    74645.602   -75614.034 
  180500    303.33893    1512.5923    72644.971    74735.344   -75281.078 
  180600    299.45912     1450.398    72787.471     74808.26   -75798.664 
  180700    295.46549    1421.4995    72913.877    74898.161   -76047.919 
  180800    286.45187    1498.6001    72939.665     74983.88   -75640.776 
  180900    289.47995    1494.1453    73023.512     75069.04    -75749.27 
  181000    288.24606    1460.4139    73143.828    75153.275   -76135.815 
  181100    298.19876    1488.7757    73181.127    75237.893   -75940.329 
  181200     303.4857    1514.4496    73231.223    75323.733   -75697.306 
  181300    298.94972    1438.6823    73395.522    75403.625   -76319.625 
  181400    301.55609    1437.5321    73479.934    75491.851   -76424.293 
  181500    300.51514    1503.9109    73499.431    75575.745   -76026.784 
  181600    304.83577    1498.7521    73581.081    75660.465   -76172.192 
  181700     300.9701    1459.4129     73713.22    75745.902    -76572.49 
  181800    299.26678    1512.7116    73741.239    75823.976   -76217.507 
  181900    310.91753    1517.5743    73794.739     75904.53   -76158.554 
  182000    297.96526    1462.1309    73965.196    75994.872   -76657.072 
  182100     292.2499    1464.5511    74056.271    76077.481   -76769.929 
  182200    299.45231     1531.852    74051.412    76153.642   -76312.456 
  182300    298.15226    1496.4147    74182.536    76246.853   -76676.906 
  182400    297.78592    1467.6714    74295.145    76330.021   -76990.304 
  182500    304.93913    1520.8644    74309.545    76411.239   -76579.676 
  182600    307.32753    1524.0375    74389.757    76499.173   -76579.655 
  182700    290.19075    1460.2597    74576.849    76589.846   -77177.641 
  182800    302.47108    1472.6001    74621.371      76670.1    -77137.29 
  182900    297.89082    1546.5153      74641.1    76755.019   -76743.169 
  183000    289.86749     1487.393    74801.693    76841.208   -77235.094 
  183100    298.05579    1477.5581    74878.491    76923.767   -77382.296 
  183200    300.93477    1531.4599     74900.46    77005.122   -76976.497 
  183300    305.32479    1534.5552    74985.252    77101.371   -76999.936 
  183400    298.72842    1460.6466    75149.785    77179.431   -77602.405 
  183500    305.88971    1495.0789    75183.726    77261.445    -77418.65 
  183600    290.88882    1547.4277    75245.137    77346.632   -77173.593 
  183700     297.9141    1492.9916    75374.704    77435.144     -77634.5 
  183800     301.4347    1489.4525    75455.228    77518.834   -77747.927 
  183900      294.417    1557.4425    75486.238    77604.467   -77314.206 
  184000     299.8266    1535.2727    75587.054    77693.417   -77475.626 
  184100    307.62036    1475.3069    75716.223    77777.466   -77980.985 
  184200    285.23774    1522.5772    75797.762    77863.643   -77754.824 
  184300     298.5399     1567.792    75806.593    77943.025   -77490.474 
  184400    313.86089     1495.669    75937.323    78030.815   -78094.732 
  184500    309.65675    1488.9499    76038.462    78117.227   -78202.961 
  184600    299.90672    1564.4057    76066.215    78201.865   -77692.703 
  184700    309.65256    1514.3604    76187.739    78291.906   -78015.663 
  184800    301.73163    1479.6818    76319.522    78373.924   -78386.853 
  184900    306.85815     1528.423    76347.703    78460.611   -78069.216 
  185000    302.64433    1562.9443    76408.431    78547.834    -77950.01 
  185100    300.99864    1482.6108    76579.592    78635.526   -78581.937 
  185200    301.19875    1495.3704    76644.455     78713.53    -78533.81 
  185300    290.75593    1565.3347    76687.782     78806.93   -78134.182 
  185400    294.72133    1527.3037    76804.433    78893.104   -78438.431 
  185500    303.85753    1484.9261    76913.165     78976.86   -78887.806 
  185600     313.1878    1575.9812    76886.541    79059.062    -78320.72 
  185700    297.29042    1576.9135    77009.411    79152.584   -78385.885 
  185800    301.04289    1501.2557    77160.741    79235.404   -79016.482 
  185900    296.78598    1523.6244    77230.112    79319.035   -78871.712 
  186000    290.25365    1591.4187    77268.474     79412.75   -78445.398 
  186100    310.26207    1512.0956    77391.018    79494.082   -79031.254 
  186200    304.61865    1485.5209    77520.397    79586.136   -79299.039 
  186300     305.5659    1573.8701    77514.141    79670.034   -78799.989 
  186400    309.66646    1572.2124    77592.894     79754.94   -78868.934 
  186500    300.72538    1507.1992    77764.734    79844.736   -79447.766 
  186600    298.49236    1550.6424    77809.341    79928.533   -79169.158 
  186700    297.27521    1586.9154    77862.975    80016.122   -78908.608 
  186800    292.94458     1501.782    78038.606     80098.37   -79585.659 
  186900    308.05076    1484.9807      78115.8    80187.537   -79721.284 
  187000    303.97841    1586.1334    78109.995    80275.127   -79099.501 
  187100    290.12922    1551.0604    78254.107    80357.787   -79469.527 
  187200    294.71255    1505.3974    78378.243     80444.99    -79895.79 
  187300    307.21899    1560.1244    78388.775    80534.071   -79512.291 
  187400    312.41073    1594.9485    78437.708    80627.717   -79318.784 
  187500    298.35459    1496.8084     78649.86    80714.956   -80133.851 
  187600    296.24162    1513.0192    78723.898    80801.179   -80033.299 
  187700    298.29665    1601.3381    78717.165     80886.68   -79539.574 
  187800    288.06327     1560.228    78864.103    80973.016    -79988.74 
  187900    297.76977    1519.8014    78973.933    81060.908   -80299.351 
  188000    294.17482    1587.1913    79000.818    81148.335   -79905.995 
  188100    308.19292    1592.9905    79058.478    81238.495   -79766.649 
  188200    311.18295    1515.8036    79214.559    81323.085   -80459.835 
  188300    308.30395    1541.3846    79279.159    81407.781   -80286.389 
  188400    301.74983    1599.0594    79324.992    81498.805   -79980.484 
  188500    287.27918    1535.2559    79503.039    81585.486   -80555.362 
  188600    290.25215    1510.9603    79612.546    81676.361   -80787.991 
  188700    286.74965    1600.6328    79618.448    81765.263   -80244.466 
  188800    292.67903    1582.5647    79712.255    81852.296   -80355.095 
  188900    304.97894    1517.4584     79840.68    81939.043   -80934.592 
  189000    291.51407    1577.6086    79891.873    82024.739   -80610.859 
  189100      298.848    1604.6927      79941.3     82115.22     -80427.3 
  189200    296.44535    1525.3178    80106.431    82196.399   -81094.428 
  189300    302.30005    1532.5859    80184.507    82292.895   -81060.516 
  189400    295.25195    1608.0131    80207.458    82377.849   -80665.891 
  189500    304.53235    1584.2306    80301.853    82466.138   -80873.836 
  189600    312.60254    1527.4241    80433.293    82556.143   -81370.636 
  189700     306.5194    1620.1911    80439.973    82644.003   -80791.493 
  189800    304.24632    1607.1007    80542.238    82728.848    -80920.65 
  189900    310.82833    1543.7115    80683.384    82819.142   -81442.463 
  190000    301.25291    1557.9961    80775.817    82907.621   -81393.215 
  190100    295.96324    1615.9703    80818.465    82998.168   -81035.066 
  190200    297.53687    1569.1349    80941.838    83077.703   -81498.877 
  190300    308.67449    1542.8585    81037.485    83168.288     -81676.4 
  190400    300.81404    1628.2804    81062.076    83263.329   -81184.774 
  190500    297.64261    1602.4905    81178.939     83348.36   -81415.454 
  190600    299.31667    1542.6865    81325.711    83438.517   -81877.108 
  190700    296.26611    1575.8291    81390.686    83530.824   -81711.906 
  190800    296.86555    1609.3272    81439.844    83614.622   -81526.132 
  190900    298.59461    1552.2206    81582.319    83703.284   -82052.926 
  191000    304.95935    1554.8105    81659.585    83795.263   -82054.411 
  191100    299.21228    1641.1339    81671.306    83882.361    -81563.93 
  191200    292.29635     1590.991    81821.239    83968.978   -82032.313 
  191300    297.01911    1554.5815    81939.388    84059.713   -82235.818 
  191400    305.49336    1610.5332     81957.74    84150.158   -81972.991 
  191500    305.67793    1622.5863    82032.464    84237.287   -81864.444 
  191600     299.1744    1542.4673    82212.203    84324.519   -82608.615 
  191700    308.72969    1583.2176    82247.944    84419.211   -82310.007 
  191800    288.72657    1631.0992    82324.189    84505.236   -82136.529 
  191900    302.34121    1573.9132    82446.368    84596.162   -82544.956 
  192000    300.88772    1564.5203    82551.963    84689.596   -82682.232 
  192100    308.79613    1638.6325     82536.71    84763.518   -82174.845 
  192200    308.58048    1622.6452    82650.139    84860.549   -82434.744 
  192300    301.93073    1566.0255    82816.678    84957.802   -82935.468 
  192400    297.20794    1626.6628    82851.155    85043.921   -82645.766 
  192500    292.93367    1638.5983    82941.893    85138.453   -82508.778 
  192600    296.00681    1552.3915    83111.081    85227.288   -83182.546 
  192700     301.5904     1596.451     83149.39    85320.291   -82956.487 
  192800    288.61891    1662.0836    83190.364    85402.191   -82670.675 
  192900    306.17204    1639.9623    83272.989    85496.129   -82930.688 
  193000    306.84709    1576.1979    83424.534    85585.195   -83399.314 
  193100    291.14461    1667.7233    83448.617    85670.895   -82813.644 
  193200    298.47914    1616.1571    83577.633    85762.314   -83098.018 
  193300    292.49647    1551.8645    83743.298    85852.291   -83637.983 
  193400    293.02557      1612.53    83772.446    85943.113   -83364.018 
  193500    294.46039    1678.2189    83793.934    86033.023   -82996.083 
  193600    296.91831      1605.01    83948.077    86118.638   -83678.764 
  193700    300.22142    1591.7245    84050.572     86214.14   -83677.288 
  193800    302.42806    1667.8377    84061.082    86304.966   -83158.135 
  193900    288.52464    1614.0017    84227.137    86390.702   -83563.392 
  194000    294.18035    1566.9815    84357.066    86484.384   -84042.156 
  194100    291.59483    1646.3431    84376.002    86577.756   -83567.038 
  194200    302.82412    1671.0341    84421.214    86669.049   -83489.103 
  194300    302.59601    1575.5482    84596.687    86748.601   -84233.903 
  194400    288.72213    1602.8765    84692.976    86845.792   -84048.264 
  194500    286.98385    1676.5301    84714.512    86937.671   -83552.188 
  194600    298.22821     1609.989    84847.596    87025.631   -84137.667 
  194700     298.0946    1597.9386     84954.99    87120.721    -84364.24 
  194800    297.01365    1702.8926    84944.238    87212.864   -83743.227 
  194900    309.10689    1670.7293    85036.715    87296.212   -84025.437 
  195000    301.77964    1573.4209    85237.991    87386.223   -84673.719 
  195100    299.17432    1640.1194    85275.272     87485.24   -84275.821 
  195200    307.11608    1688.4672    85301.875    87575.318   -83949.323 
  195300     295.0283    1597.2633    85497.982    87657.197   -84772.736 
  195400    292.25098    1630.9154    85563.216    87750.793   -84589.109 
  195500    293.20576    1715.0188    85572.102    87845.601   -84119.018 
  195600    298.24306    1652.1307    85716.451    87936.656   -84546.364 
  195700    290.01438    1579.1389    85893.203    88024.743   -85141.767 
  195800    297.34971    1681.4992    85872.582    88120.454   -84455.682 
  195900     303.8562    1670.5736    85964.512    88213.852   -84608.781 
  196000    301.59914    1587.9334    86139.206    88301.606   -85239.427 
  196100     284.2186    1644.4454    86207.109    88392.916   -84994.551 
  196200    285.24714    1721.6494    86221.324    88486.295   -84542.948 
  196300    303.59724     1611.539    86387.571    88577.383   -85259.095 
  196400    311.31183     1609.502    86468.275    88670.744   -85348.264 
  196500    307.52307    1692.9313    86485.163    88763.845   -84803.242 
  196600    297.19351    1655.7309    86632.597    88854.403   -85189.579 
  196700    295.41881    1596.8049    86786.949     88946.45   -85731.966 
  196800    298.83127    1666.3983    86801.754    89037.347   -85261.946 
  196900    292.10566    1699.5354    86874.465    89130.385   -85092.833 
  197000    298.48505    1609.0147    87036.587    89214.137    -85805.51 
  197100    300.17112    1637.6409    87099.701    89309.089   -85682.101 
  197200    294.11983    1727.9056    87112.378    89400.504   -85169.316 
  197300    294.66815     1657.141    87281.108    89499.515   -85731.807 
  197400    299.38947    1611.8612    87408.524    89590.644   -86109.902 
  197500    298.01812    1697.9887    87413.428    89679.063    -85500.09 
  197600     296.0306      1682.03    87532.345    89778.235   -85662.157 
  197700    304.60561    1610.0539    87679.067    89869.314   -86358.422 
  197800     299.3927    1684.0165    87701.667    89955.948    -85917.58 
  197900    299.08457    1748.6002    87730.741    90049.019   -85598.296 
  198000    303.16384    1631.8962    87935.369    90144.713   -86347.957 
  198100    300.98767     1626.504    88036.407    90236.213   -86420.558 
  198200    305.87555    1722.4416    88026.293    90331.347   -85835.051 
  198300    302.61002    1669.9689    88177.101    90423.462   -86282.937 
  198400     297.1704    1620.8548    88326.096    90512.983   -86847.982 
  198500    305.45211    1721.4016    88300.778    90603.986   -86121.347 
  198600    301.40745    1705.5352    88419.496    90699.133   -86301.656 
  198700    311.99908    1615.6004    88581.449    90791.325   -86878.144 
  198800    286.21087    1649.6464    88683.987     90878.79   -86733.086 
  198900    287.42126    1745.5173    88687.252    90980.231   -86224.496 
  199000    298.19087    1660.0217     88848.59    91076.587   -86925.133 
  199100    307.78396    1656.3052    88927.522    91170.075   -87030.632 
  199200    296.27717    1741.6366     88949.46    91255.427   -86488.375 
  199300    306.38119    1685.6121    89084.022     91353.21   -86855.986 
  199400    302.07531    1624.8553    89245.509    91445.738   -87388.328 
  199500    302.19547    1703.2513    89256.013    91534.867   -86873.773 
  199600    305.10654    1728.8701    89320.139    91630.157   -86827.266 
  199700    293.85603    1649.8645    89513.704    91723.287   -87462.775 
  199800    299.98521    1687.2149    89557.086    91815.694   -87259.943 
  199900    293.80702    1740.7107    89608.348    91908.684   -86948.113 
  200000    297.97905    1682.4134    89752.025    92002.011   -87425.989 
  200100    305.35583    1663.1055    89853.854    92098.582   -87662.746 
  200200    299.02227    1757.0695    89862.443    92189.072   -87103.981 
  200300    300.22063    1714.3242    89995.579    92281.745   -87426.284 
  200400    309.18284    1657.6186    90130.409     92376.94   -87821.123 
  200500    308.76297    1706.7835    90170.201    92465.097   -87537.169 
  200600    299.49854    1752.3299    90236.853     92559.65   -87395.526 
  200700    296.35823    1673.0517    90417.369    92654.906   -87997.996 
  200800    294.29043    1694.6592    90497.341    92752.546   -87906.782 
  200900    310.85378    1742.4611    90509.211    92843.767   -87554.428 
  201000     307.8329    1682.8082    90673.645    92942.794   -88028.437 
  201100    302.36811    1654.7046    90805.412    93036.049   -88298.463 
  201200    296.26677    1727.1766    90835.615    93127.102   -87881.111 
  201300    299.66768     1731.245    90912.479    93214.512   -88004.031 
  201400    300.53657    1673.0693    91071.315    93316.828   -88496.128 
  201500    299.96809    1718.0158    91123.398    93412.774   -88229.792 
  201600    305.76288    1741.4664    91179.796    93503.661   -88043.743 
  201700     300.2315    1671.9374    91357.287    93601.087   -88633.408 
  201800    303.64154    1684.8227    91430.562    93693.742   -88615.732 
  201900    295.45976    1766.6147     91454.38    93783.768   -88165.487 
  202000    300.73577    1698.3771    91605.502    93876.701   -88693.105 
  202100    299.47312    1678.1284    91729.696    93978.242   -88902.635 
  202200    296.18935    1744.4311    91760.063    94068.657   -88522.951 
  202300    316.88682    1729.4134    91831.783    94164.782   -88656.772 
  202400    304.89198    1659.6281    92022.274    94262.642   -89186.699 
  202500    304.69227    1728.8105    92049.039    94358.209   -88810.258 
  202600    297.67064    1750.5462    92133.392    94450.923   -88695.224 
  202700    300.92448    1685.1723    92287.593    94545.947   -89275.543 
  202800    302.15479    1712.2345    92350.778    94638.539   -89144.356 
  202900    291.94134      1772.46    92405.474    94734.005   -88836.238 
  203000    301.81414    1705.7285    92548.825     94829.43   -89312.988 
  203100    303.31966    1681.8732    92664.749    94924.366   -89530.506 
  203200    306.14519    1749.4716     92688.78    95021.378   -89094.229 
  203300     297.0545      1740.03     92807.57    95113.411   -89303.453 
  203400     308.5037    1695.4204    92929.808    95212.847   -89723.024 
  203500    310.98969    1753.3407     92960.99    95306.684   -89389.474 
  203600    302.12633    1779.0895    93046.392    95400.953   -89254.721 
  203700    290.48909    1682.6905    93245.831    95481.827   -89933.808 
  203800    314.25716    1707.7898    93282.078    95588.445   -89805.662 
  203900    294.89909    1787.1991    93333.468    95682.373   -89406.804 
  204000    303.38398      1725.19    93476.723     95779.78   -89953.736 
  204100    297.06956    1705.3726    93607.032    95878.244   -90209.718 
  204200    294.48961    1781.2425    93625.715    95967.883   -89672.793 
  204300    302.18349    1746.0721    93745.707    96067.359   -89917.419 
  204400    300.22193    1673.8831    93917.271    96162.998   -90507.755 
  204500    303.55638    1765.8043    93916.508    96260.507   -89950.663 
  204600    307.80315    1791.1523    93976.226    96353.662   -89916.987 
  204700    304.99398    1704.3571    94163.454    96448.745   -90567.752 
  204800    302.55502    1721.8332    94247.019     96545.14   -90498.221 
  204900    299.53998    1799.4492    94264.892    96634.887   -89989.677 
  205000    291.12336    1721.0027    94456.983    96732.499   -90633.831 
Loop time of 154.518 on 1 procs for 200000 steps with 680 atoms

Performance: 111.832 ns/day, 0.215 hours/ns, 1294.348 timesteps/s
99.9% CPU use with 1 MPI tasks x 1 OpenMP threads

MPI task timing breakdown:
Section |  min time  |  avg time  |  max time  |%varavg| %total
---------------------------------------------------------------
Pair    | 59.456     | 59.456     | 59.456     |   0.0 | 38.48
Bond    | 93.49      | 93.49      | 93.49      |   0.0 | 60.50
Neigh   | 0.13801    | 0.13801    | 0.13801    |   0.0 |  0.09
Comm    | 0.017111   | 0.017111   | 0.017111   |   0.0 |  0.01
Output  | 0.098126   | 0.098126   | 0.098126   |   0.0 |  0.06
Modify  | 1.1267     | 1.1267     | 1.1267     |   0.0 |  0.73
Other   |            | 0.1924     |            |       |  0.12

Nlocal:        680.000 ave         680 max         680 min
Histogram: 1 0 0 0 0 0 0 0 0 0
Nghost:         0.00000 ave           0 max           0 min
Histogram: 1 0 0 0 0 0 0 0 0 0
Neighs:        53352.0 ave       53352 max       53352 min
Histogram: 1 0 0 0 0 0 0 0 0 0

Total # of neighbors = 53352
Ave neighs/atom = 78.458824
Ave special neighs/atom = 16.558824
Neighbor list builds = 159
Dangerous builds = 0
Total wall time: 0:02:38
